 C  H  I  N Sn                          
   1.0000000000000000     
    14.6370000000000005    0.0000000000000000    0.0000000000000000
     0.0000000000000000    8.7859999999999996    0.0000000000000000
     0.0000000000000000    0.0000000000000000    8.2880000000000003
   C    H    I    N    Sn
     4    20    12     8     4
Selective dynamics
Direct
  0.6665266396638868  0.5316400945912489  0.2860057322170230   T   T   T
  0.3146597931383824  0.5213766556029785  0.7855137606072081   T   T   T
  0.8515931332836441  0.0349233900781815  0.7676214516400750   T   T   T
  0.1698229621940886  0.0442168785216108  0.2261678113020013   T   T   T
  0.6449869428078427  0.4143208530807529  0.0750922963747781   T   T   T
  0.6769194453818701  0.3076042590068473  0.3492670350313774   T   T   T
  0.6937454737353669  0.4397908267008689  0.5028541392168056   T   T   T
  0.6412548866943563  0.6103502671722251  0.0627198737016272   T   T   T
  0.6705085989575893  0.6464178828431644  0.3341130481410603   T   T   T
  0.3638287444930544  0.5740492712700777  0.5605202922739425   T   T   T
  0.4496420109455410  0.4646372572874934  0.7978760478322972   T   T   T
  0.3869263994270785  0.4338667244799603  0.9709267007242441   T   T   T
  0.2487313818424219  0.6054748741863459  0.5941322431531895   T   T   T
  0.2520586597523148  0.5230695207624014  0.8556354922423755   T   T   T
  0.7659846268632515  0.8952500423835901  0.8916482928533310   T   T   T
  0.7820314681515447  0.9148351035575599  0.5964825479909415   T   T   T
  0.8617347933900418  0.0427391685702091  0.5248285626762809   T   T   T
  0.8339847856298613  0.0158602942085955  0.0072960577767674   T   T   T
  0.9036040515862817  0.1218694389905271  0.7835886939460006   T   T   T
  0.1491653038425934 -0.0563989288824977  0.4466433147666704   T   T   T
  0.1635128549592440  0.8165957897335431  0.1758232138643802   T   T   T
  0.1807507873510281 -0.0620808460440582  0.0128297309101982   T   T   T
  0.1614239094507271  0.1393161070362428  0.4460986304861708   T   T   T
  0.1793427861736807  0.1547437940117456  0.1700946001493172   T   T   T
  0.5891000000000020  0.2396999999999991  0.7969999999999970   F   F   F
  0.4108999999999980  0.7603000000000009  0.2969999999999970   F   F   F
  0.9108999999999980  0.7396999999999991  0.2969999999999970   F   F   F
  0.0891000000000020  0.2603000000000009  0.7969999999999970   F   F   F
  0.3340200000000024  0.9986999999999995  0.7571000000000012   F   F   F
  0.6659799999999976  0.0013000000000005  0.2571000000000012   F   F   F
  0.1659799999999976  0.4986999999999995  0.2571000000000012   F   F   F
  0.8340200000000024  0.5013000000000005  0.7571000000000012   F   F   F
  0.4117000000000033  0.2400999999999982  0.2049999999999983   F   F   F
  0.5882999999999967  0.7599000000000018  0.7049999999999983   F   F   F
  0.0882999999999967  0.7400999999999982  0.7049999999999983   F   F   F
  0.9117000000000033  0.2599000000000018  0.2049999999999983   F   F   F
  0.6778862161139735  0.4181591548334401  0.3860946055785021   T   T   T
  0.6502023776447460  0.5166763970560878  0.1314040584772934   T   T   T
  0.3895123144793789  0.4771501090166704  0.8573036832655667   T   T   T
  0.3090877900420179  0.5637251822170561  0.6347320476658619   T   T   T
  0.8292046686761904  0.9962364423079625  0.6203271251158252   T   T   T
  0.8158338167733339 -0.0249742008687211  0.8975152935074128   T   T   T
  0.1693315860602150 -0.0755499382640560  0.1324237785808031   T   T   T
  0.1592228657886212  0.0410073023777846  0.3830153139852718   T   T   T
  0.5000000000000000  0.0026000000000010  0.0000000000000000   F   F   F
  0.5000000000000000  0.9973999999999990  0.5000000000000000   F   F   F
  0.0000000000000000  0.5026000000000010  0.5000000000000000   F   F   F
  0.0000000000000000  0.4973999999999990  0.0000000000000000   F   F   F

  0.00000000E+00  0.00000000E+00  0.00000000E+00
  0.00000000E+00  0.00000000E+00  0.00000000E+00
  0.00000000E+00  0.00000000E+00  0.00000000E+00
  0.00000000E+00  0.00000000E+00  0.00000000E+00
  0.00000000E+00  0.00000000E+00  0.00000000E+00
  0.00000000E+00  0.00000000E+00  0.00000000E+00
  0.00000000E+00  0.00000000E+00  0.00000000E+00
  0.00000000E+00  0.00000000E+00  0.00000000E+00
  0.00000000E+00  0.00000000E+00  0.00000000E+00
  0.00000000E+00  0.00000000E+00  0.00000000E+00
  0.00000000E+00  0.00000000E+00  0.00000000E+00
  0.00000000E+00  0.00000000E+00  0.00000000E+00
  0.00000000E+00  0.00000000E+00  0.00000000E+00
  0.00000000E+00  0.00000000E+00  0.00000000E+00
  0.00000000E+00  0.00000000E+00  0.00000000E+00
  0.00000000E+00  0.00000000E+00  0.00000000E+00
  0.00000000E+00  0.00000000E+00  0.00000000E+00
  0.00000000E+00  0.00000000E+00  0.00000000E+00
  0.00000000E+00  0.00000000E+00  0.00000000E+00
  0.00000000E+00  0.00000000E+00  0.00000000E+00
  0.00000000E+00  0.00000000E+00  0.00000000E+00
  0.00000000E+00  0.00000000E+00  0.00000000E+00
  0.00000000E+00  0.00000000E+00  0.00000000E+00
  0.00000000E+00  0.00000000E+00  0.00000000E+00
  0.00000000E+00  0.00000000E+00  0.00000000E+00
  0.00000000E+00  0.00000000E+00  0.00000000E+00
  0.00000000E+00  0.00000000E+00  0.00000000E+00
  0.00000000E+00  0.00000000E+00  0.00000000E+00
  0.00000000E+00  0.00000000E+00  0.00000000E+00
  0.00000000E+00  0.00000000E+00  0.00000000E+00
  0.00000000E+00  0.00000000E+00  0.00000000E+00
  0.00000000E+00  0.00000000E+00  0.00000000E+00
  0.00000000E+00  0.00000000E+00  0.00000000E+00
  0.00000000E+00  0.00000000E+00  0.00000000E+00
  0.00000000E+00  0.00000000E+00  0.00000000E+00
  0.00000000E+00  0.00000000E+00  0.00000000E+00
  0.00000000E+00  0.00000000E+00  0.00000000E+00
  0.00000000E+00  0.00000000E+00  0.00000000E+00
  0.00000000E+00  0.00000000E+00  0.00000000E+00
  0.00000000E+00  0.00000000E+00  0.00000000E+00
  0.00000000E+00  0.00000000E+00  0.00000000E+00
  0.00000000E+00  0.00000000E+00  0.00000000E+00
  0.00000000E+00  0.00000000E+00  0.00000000E+00
  0.00000000E+00  0.00000000E+00  0.00000000E+00
  0.00000000E+00  0.00000000E+00  0.00000000E+00
  0.00000000E+00  0.00000000E+00  0.00000000E+00
  0.00000000E+00  0.00000000E+00  0.00000000E+00
  0.00000000E+00  0.00000000E+00  0.00000000E+00
