 C  H  I  N Sn 
 1.0000000000000000
    14.6370000000000005    0.0000000000000000    0.0000000000000000
     0.0000000000000000    8.7859999999999996    0.0000000000000000
     0.0000000000000000    0.0000000000000000    8.2880000000000003
 C   H   I   N   Sn 
   4  20  12   8   4
Selective dynamics
Direct
  0.6737362708251666  0.4617337938075584  0.2376107304475267 T T T                         
  0.3266206860121192  0.6037337938075584  0.7376272381220791 T T T              
  0.8435557542188084  0.9617337938075587  0.7236935186555461 T T T              
  0.1924700137485000  0.1037337938075584  0.1847051653305769 T T T              
  0.5962244932900804  0.3929880619614395  0.0432289643388844 T T T              
  0.7455407116072681  0.2806502518089241  0.1441693518380488 T T T              
  0.7922667555458487  0.3694278525373558  0.3149043399897106 T T T              
  0.5550833992569986  0.5490317678571828  0.1531456336909055 T T T              
  0.6756207298968635  0.5468692365573876  0.3353715961525346 T T T              
  0.2549755451610556  0.5349880619614396  0.5363476244061213 T T T              
  0.4010958112989692  0.4226502518089241  0.6509506423046110 T T T              
  0.4426981701425469  0.5114278525373559  0.8257704283213747 T T T              
  0.2106335063111051  0.6910317678571828  0.6423110770384421 T T T              
  0.3256054665949791  0.6888692365573876  0.8354283023156066 T T T              
  0.7096355862261345  0.8929880619614398  0.6994793967653889 T T T              
  0.8507321006104305  0.7806502518089244  0.5666857075548650 T T T              
  0.9543497032546788  0.8694278525373559  0.6164189989271839 T T T              
  0.7296168207066847  1.0490317678571828  0.8264262430997034 T T T              
  0.8865695824733806  1.0468692365573877  0.7853187107059183 T T T              
  0.1194550162944937  0.0349880619614396  0.3844435585711870 T T T              
  0.1165143955933172 -0.0773497481910757  0.1021327014898126 T T T              
  0.1886472525868737  0.0114278525373560 -0.0383373366991577 T T T              
  0.1925735544003881  0.1910317678571829  0.4106345561649980 T T T              
  0.2430890369521322  0.1888692365573878  0.1449975919340172 T T T              
  0.5891000000000000  0.2397000000000000  0.7969999999999999 F F F
  0.4109000000000000  0.7603000000000000  0.2970000000000000 F F F
  0.9108999999999999  0.7397000000000000  0.2970000000000000 F F F
  0.0890999999999999  0.2603000000000000  0.7969999999999999 F F F
  0.3340200000000000  0.9987000000000000  0.7571000000000000 F F F
  0.6659799999999999  0.0013000000000000  0.2571000000000000 F F F
  0.1659800000000000  0.4987000000000000  0.2571000000000000 F F F
  0.8340199999999999  0.5013000000000000  0.7571000000000000 F F F
  0.4117000000000000  0.2401000000000000  0.2050000000000000 F F F
  0.5882999999999999  0.7599000000000000  0.7050000000000000 F F F
  0.0883000000000000  0.7401000000000000  0.7050000000000000 F F F
  0.9116999999999998  0.2599000000000000  0.2050000000000000 F F F
  0.7415621673757964  0.3652166073745968  0.2289499917391998 T T T  
  0.6038254725760192  0.4651483169124980  0.1394594515032215 T T T
  0.3946102863254444  0.5072166073745968  0.7352473652979216 T T T
  0.2597143636926690  0.6071483169124980  0.6331487726284336 T T T
  0.8843524319945690  0.8652166073745969  0.6276096257217273 T T T
  0.7557457912124285  0.9651483169124981  0.7524812901002722 T T T
  0.1625150536230245  0.0072166073745972  0.0768879841908701 T T T
  0.1671291367812695  0.1071483169124982  0.3359487559520505 T T T
  0.4999999999999999  0.0026000000000000  0.0000000000000000 F F F
  0.4999999999999999  0.9974000000000000  0.5000000000000000 F F F
  0.0000000000000001  0.5026000000000000  0.5000000000000000 F F F
  0.0000000000000000  0.4974000000000000  0.0000000000000000 F F F
