 C  H  I  N Sn                          
   1.0000000000000000     
     6.4513581501759170    0.2925979639704991    0.1572252158370141
     0.2913622751106885    6.4484722503008962    0.2752929030037901
     0.1657707491378488    0.2855631419258611    6.3835569912703027
   C    H    I    N    Sn
     1     5     3     2     1
Direct
  0.9525829648074366  0.0450001126001109  0.9951578479966122
  0.0697314795075938  0.7804440748123176  0.8648776075311937
  0.2223146001018431  0.9521552045237389  0.1406197574884578
  0.0821560439789792  0.1743338765525203  0.2267768908291505
  0.8384983862645177  0.9007728012430425  0.7651950203827272
  0.8228536761295030  0.1646054296009623  0.9903363345826963
 -0.0446897015012413  0.4847311337450323  0.4855080402531528
  0.5080749456806162  0.0361280436582203  0.5196089718429598
  0.4676066492880516  0.5519881695604172  0.0226996204056555
  0.0964755294662380  0.0578714961811971  0.1288781577120975
  0.9545257782681172  0.8979987298369946  0.8667916251252251
  0.4976452037737135  0.4944124259396790  0.4863734894156130

  0.00000000E+00  0.00000000E+00  0.00000000E+00
  0.00000000E+00  0.00000000E+00  0.00000000E+00
  0.00000000E+00  0.00000000E+00  0.00000000E+00
  0.00000000E+00  0.00000000E+00  0.00000000E+00
  0.00000000E+00  0.00000000E+00  0.00000000E+00
  0.00000000E+00  0.00000000E+00  0.00000000E+00
  0.00000000E+00  0.00000000E+00  0.00000000E+00
  0.00000000E+00  0.00000000E+00  0.00000000E+00
  0.00000000E+00  0.00000000E+00  0.00000000E+00
  0.00000000E+00  0.00000000E+00  0.00000000E+00
  0.00000000E+00  0.00000000E+00  0.00000000E+00
  0.00000000E+00  0.00000000E+00  0.00000000E+00
