 C  H  I  N Sn                          
   1.0000000000000000     
     6.3074000000000003    0.0000000000000000    0.0000000000000000
     0.0000000000000000    6.3074000000000003    0.0000000000000000
     0.0000000000000000    0.0000000000000000    6.3074000000000003
   C    H    I    N    Sn
     1     5     3     2     1
Direct
  0.9466927485829169  0.0543216783344507 -0.0015702178888230 
  0.0689969157280505  0.8108016040715499  0.8247305279432329 
  0.1885423965313011  0.9349178889999969  0.1766834455814990 
  0.0535249148683491  0.1495410274186940  0.2831995246117952 
  0.8546683772688344 -0.0566511383614963  0.7143589938993467 
  0.8245258977605535  0.1760569679604542 -0.0031737583069441 
  0.0000000000000000  0.5000000000000000  0.5000000000000000 
  0.5000000000000000  0.0000000000000000  0.5000000000000000 
  0.5000000000000000  0.5000000000000000  0.0000000000000000 
  0.0687362193739365  0.0412222915048754  0.1650333172902730 
  0.9620880856514242 -0.0697688216742935  0.8335615304351707 
  0.5000000000000000  0.5000000000000000  0.5000000000000000 

  0.00000000E+00  0.00000000E+00  0.00000000E+00
  0.00000000E+00  0.00000000E+00  0.00000000E+00
  0.00000000E+00  0.00000000E+00  0.00000000E+00
  0.00000000E+00  0.00000000E+00  0.00000000E+00
  0.00000000E+00  0.00000000E+00  0.00000000E+00
  0.00000000E+00  0.00000000E+00  0.00000000E+00
  0.00000000E+00  0.00000000E+00  0.00000000E+00
  0.00000000E+00  0.00000000E+00  0.00000000E+00
  0.00000000E+00  0.00000000E+00  0.00000000E+00
  0.00000000E+00  0.00000000E+00  0.00000000E+00
  0.00000000E+00  0.00000000E+00  0.00000000E+00
  0.00000000E+00  0.00000000E+00  0.00000000E+00
