Br C  H  N  Pb
 1.0000000000000000
     8.4152470000000008    0.0000000000000000    0.0000000000000000
     0.0000000000000000    8.4152470000000008    0.0000000000000000
     0.0000000000000000    0.0000000000000000    5.9473479999999999
 Br  C   H   N   Pb 
   6   2  10   4   2
Direct
  0.2244000000000000  0.7244000000000000  0.0000000000000000
  0.2756000000000000  0.2244000000000000  0.0000000000000000
  0.7756000000000001  0.2756000000000000  0.0000000000000000
  0.7244000000000000  0.7756000000000001  0.0000000000000000
  0.0000000000000000  0.0000000000000000  0.4999999999999999
  0.5000000000000000  0.5000000000000000  0.4999999999999999
 -0.0248103418445631  0.5341759561416568  0.5389614268571983
  0.4751896581554369  0.0341759561416569  0.5389614268571983
  0.0111957314174575  0.4624014734675296  0.2115886213647335
  0.1289581690500070  0.3451143635348087  0.5680500223118446
  0.0706116938960395  0.4378032650013968  0.8190862825071452
 -0.1154791005868793  0.6253200425838016  0.2514383157158964
 -0.0893360770963033  0.6230622360096155  0.6401830133525572
  0.5111957314174574 -0.0375985265324703  0.2115886213647335
  0.6289581690500070 -0.1548856364651913  0.5680500223118446
  0.5706116938960395 -0.0621967349986032  0.8190862825071452
  0.3845208994131207  0.1253200425838016  0.2514383157158964
  0.4106639229036967  0.1230622360096155  0.6401830133525572
  0.0659772488227102  0.4334064837779816  0.6462361314818478
 -0.0451306010122383  0.5377409138903717  0.3210491742027379
  0.5659772488227102 -0.0665935162220183  0.6462361314818478
  0.4548693989877617  0.0377409138903717  0.3210491742027379
  0.0000000000000000  0.0000000000000000  0.0000000000000000
  0.5000000000000000  0.5000000000000000  0.0000000000000000
