 C  H  I  N Sn 
 1.0000000000000000
     6.3074000000000003    0.0000000000000000    0.0000000000000000
     0.0000000000000000    6.3074000000000003    0.0000000000000000
     0.0000000000000000    0.0000000000000000    6.3074000000000003
 C   H   I   N   Sn 
   1   5   3   2   1
Selective dynamics
Direct
 -0.0514653905200342  0.0229374322304209  0.0367373504290683  T T T 
  0.0380177082760918 -0.0359742181938113 -0.2719476861945800  T T T      
  0.2523264844993181 -0.0929338328583708  0.0641654507556688  T T T    
  0.1230785418830009 -0.0247599712114376  0.3008715420135564  T T T    
 -0.2170292334802912  0.0677643791027717 -0.2343727741864626  T T T    
 -0.1853163900214057  0.0825954532899321  0.1321807978083371  T T T   
  0.0000000000000000  0.5000000000000000  0.5000000000000000  F F F   
  0.5000000000000000  0.0000000000000000  0.5000000000000000  F F F   
  0.5000000000000000  0.5000000000000000  0.0000000000000000  F F F    
  0.1206567847806146 -0.0329317916033620  0.1378883793791903  T T T    
 -0.0773223750219111  0.0135010181950869 -0.1687355861216499  T T T    
  0.5000000000000000  0.5000000000000000  0.5000000000000000  F F F   
                                                               
                                                               
