 C  H  I  N Sn                          
   1.0000000000000000     
    14.6370000000000005    0.0000000000000000    0.0000000000000000
     0.0000000000000000    8.7859999999999996    0.0000000000000000
     0.0000000000000000    0.0000000000000000    8.2880000000000003
   C    H    I    N    Sn
     4    20    12     8     4
Direct
  0.6547772246592618  0.5377011189151226  0.2800264624395367 
  0.3337495201184830  0.4722130890409811  0.7861647006562071 
  0.8508424869664007  0.0433164563769954  0.7736503403820759 
  0.1665618465588751  0.0349857800053998  0.2222302686370601 
  0.6527511013604417  0.4270035275499384  0.0616679967156098 
  0.6505823130574779  0.3116684269501762  0.3383983873697659 
  0.6496297550161138  0.4395428754161103  0.4986808157142955 
  0.6593004552212688  0.6233469451703447  0.0552918578091183 
  0.6566469431263838  0.6509158464033649  0.3325840805255727 
  0.3576840182346468  0.5977056700009424  0.5816837074712616 
  0.4393227288323507  0.6125812166402596  0.8447644780530705 
  0.4027263057882378  0.4863729827177952 -0.0054203696537954 
  0.2704529879971762  0.4662046879232855  0.5704942705647090 
  0.2906041322817489  0.3818999114333027  0.8331380382493879 
  0.8511925718666223  0.8167904093252412  0.8309166433595214 
  0.8607117925034095  0.9343017023209813  0.5550093000134351 
  0.8567888667113179  0.1307120062033246  0.5496696389961222 
  0.8469737705460604 -0.0559521268530698 -0.0083329871335955 
  0.8480097258641885  0.1561009486531589  0.8271455657883490 
  0.1415126584201296  0.9273934806062919  0.4379174979278957 
  0.1759263204727924  0.8084509774912242  0.1692404889173182 
  0.1951212430678289  0.9341067686609846  0.0106445217694703 
  0.1404736798883035  0.1239359131114336  0.4408120034875814 
  0.1721730398400958  0.1475116952470539  0.1690422080923722 
  0.5891000000000020  0.2396999999999991  0.7969999999999970 
  0.4108999999999980  0.7603000000000009  0.2969999999999970 
  0.9108999999999980  0.7396999999999991  0.2969999999999970 
  0.0891000000000020  0.2603000000000009  0.7969999999999970 
  0.3340200000000024  0.9986999999999995  0.7571000000000012 
  0.6659799999999976  0.0013000000000005  0.2571000000000012 
  0.1659799999999976  0.4986999999999995  0.2571000000000012 
  0.8340200000000024  0.5013000000000005  0.7571000000000012 
  0.4117000000000033  0.2400999999999982  0.2049999999999983 
  0.5882999999999967  0.7599000000000018  0.7049999999999983 
  0.0882999999999967  0.7400999999999982  0.7049999999999983 
  0.9117000000000033  0.2599000000000018  0.2049999999999983 
  0.6515840623523148  0.4213226153918009  0.3782060454083357 
  0.6557915379903360  0.5274973122732116  0.1222855827038436 
  0.3939798839102219  0.5327236840969490  0.8834482225574614 
  0.3215013137593344  0.5131852523215805  0.6358372292260183 
  0.8553791217091513  0.0343181119288862  0.6161626253130583 
  0.8492931594129153  0.9261954155943950  0.8711639035058962 
  0.1776629617227563  0.9173543216360446  0.1276005752194285 
  0.1488379138384165  0.0270615524355329  0.3769407380547791 
  0.5000000000000000  0.0026000000000010  0.0000000000000000 
  0.5000000000000000  0.9973999999999990  0.5000000000000000 
  0.0000000000000000  0.5026000000000010  0.5000000000000000 
  0.0000000000000000  0.4973999999999990  0.0000000000000000 

  0.00000000E+00  0.00000000E+00  0.00000000E+00
  0.00000000E+00  0.00000000E+00  0.00000000E+00
  0.00000000E+00  0.00000000E+00  0.00000000E+00
  0.00000000E+00  0.00000000E+00  0.00000000E+00
  0.00000000E+00  0.00000000E+00  0.00000000E+00
  0.00000000E+00  0.00000000E+00  0.00000000E+00
  0.00000000E+00  0.00000000E+00  0.00000000E+00
  0.00000000E+00  0.00000000E+00  0.00000000E+00
  0.00000000E+00  0.00000000E+00  0.00000000E+00
  0.00000000E+00  0.00000000E+00  0.00000000E+00
  0.00000000E+00  0.00000000E+00  0.00000000E+00
  0.00000000E+00  0.00000000E+00  0.00000000E+00
  0.00000000E+00  0.00000000E+00  0.00000000E+00
  0.00000000E+00  0.00000000E+00  0.00000000E+00
  0.00000000E+00  0.00000000E+00  0.00000000E+00
  0.00000000E+00  0.00000000E+00  0.00000000E+00
  0.00000000E+00  0.00000000E+00  0.00000000E+00
  0.00000000E+00  0.00000000E+00  0.00000000E+00
  0.00000000E+00  0.00000000E+00  0.00000000E+00
  0.00000000E+00  0.00000000E+00  0.00000000E+00
  0.00000000E+00  0.00000000E+00  0.00000000E+00
  0.00000000E+00  0.00000000E+00  0.00000000E+00
  0.00000000E+00  0.00000000E+00  0.00000000E+00
  0.00000000E+00  0.00000000E+00  0.00000000E+00
  0.00000000E+00  0.00000000E+00  0.00000000E+00
  0.00000000E+00  0.00000000E+00  0.00000000E+00
  0.00000000E+00  0.00000000E+00  0.00000000E+00
  0.00000000E+00  0.00000000E+00  0.00000000E+00
  0.00000000E+00  0.00000000E+00  0.00000000E+00
  0.00000000E+00  0.00000000E+00  0.00000000E+00
  0.00000000E+00  0.00000000E+00  0.00000000E+00
  0.00000000E+00  0.00000000E+00  0.00000000E+00
  0.00000000E+00  0.00000000E+00  0.00000000E+00
  0.00000000E+00  0.00000000E+00  0.00000000E+00
  0.00000000E+00  0.00000000E+00  0.00000000E+00
  0.00000000E+00  0.00000000E+00  0.00000000E+00
  0.00000000E+00  0.00000000E+00  0.00000000E+00
  0.00000000E+00  0.00000000E+00  0.00000000E+00
  0.00000000E+00  0.00000000E+00  0.00000000E+00
  0.00000000E+00  0.00000000E+00  0.00000000E+00
  0.00000000E+00  0.00000000E+00  0.00000000E+00
  0.00000000E+00  0.00000000E+00  0.00000000E+00
  0.00000000E+00  0.00000000E+00  0.00000000E+00
  0.00000000E+00  0.00000000E+00  0.00000000E+00
  0.00000000E+00  0.00000000E+00  0.00000000E+00
  0.00000000E+00  0.00000000E+00  0.00000000E+00
  0.00000000E+00  0.00000000E+00  0.00000000E+00
  0.00000000E+00  0.00000000E+00  0.00000000E+00
