 C  H  I  N Sn                          
   1.0000000000000000     
     8.8378999999999994    0.0000000000000000    0.0000000000000000
     0.0000000000000000    8.8378999999999994    0.0000000000000000
     0.0000000000000000    0.0000000000000000   12.4065999999999992
   C    H    I    N    Sn
     4    20    12     8     4
Selective dynamics
Direct
  0.5376926637714342  0.0272136524405277  0.5044385631769167   T   T   T
 -0.0048530943345715  0.5318263677824122  0.4771664770407415   T   T   T
  0.5390841790821465  0.0135096907032804  0.0173924611636718   T   T   T
  0.0075805054008251  0.5329877525597521  0.0511638541003347   T   T   T
  0.3640763917907396  0.9559869528797476  0.4086200506842545   T   T   T
  0.5542504617514696  0.7960200136604998  0.5047433325326542   T   T   T
  0.6914765439106298  0.8932420847333055  0.5758466735238686   T   T   T
  0.3779644578242999  0.1490262041800146  0.4279257068240701   T   T   T
  0.5906790927447872  0.1282848478168013  0.5364735158430985   T   T   T
 -0.0482371849304024  0.3401448058796868  0.5629432095121598   T   T   T
  0.1231449522236993  0.5489635821149171  0.6133272806241959   T   T   T
  0.1298599865658372  0.7014003458557807  0.5252785184934962   T   T   T
  0.8608504083671901  0.3559345322122776  0.4393494670129141   T   T   T
  0.9659724367878356  0.5903847048920087  0.4029484659184434   T   T   T
  0.3211133711657332  0.0014412291154925 -0.0354805462231496   T   T   T
  0.5398335096922023  0.8575053397504270  0.8970328316093050   T   T   T
  0.7130765811356155  0.8931715515963236  0.9593477850786214   T   T   T
  0.3553024861139920  0.1277181447592566  0.0685725673961148   T   T   T
  0.6116970561026103  0.0709410669332047  0.0748646241351789   T   T   T
  0.8421340540975488  0.5167954832422245 -0.0620999082797288   T   T   T
  0.1080623286451787  0.4377223107652525  0.9191182710353513   T   T   T
  0.2249262760582203  0.4740608736918677  0.0275497255503168   T   T   T
  0.7895091156396449  0.5920278985234475  0.0617129740044747   T   T   T
  0.0293667454489904  0.5720015890717646  0.1326842296308926   T   T   T
  0.0000000000000000  0.0000000000000000  0.0083500000000001   F   F   F
  0.5000000000000000  0.5000000000000000  0.0083500000000001   F   F   F
  0.6987000000000023  0.1987000000000023  0.7503999999999991   F   F   F
  0.3012999999999977  0.8012999999999977  0.7503999999999991   F   F   F
  0.8012999999999977  0.6987000000000023  0.7503999999999991   F   F   F
  0.1987000000000023  0.3012999999999977  0.7503999999999991   F   F   F
  0.0000000000000000  0.0000000000000000  0.5097000000000023   F   F   F
  0.5000000000000000  0.5000000000000000  0.5097000000000023   F   F   F
  0.7340299999999971  0.2340299999999971  0.2490000000000023   F   F   F
  0.2659700000000029  0.7659700000000029  0.2490000000000023   F   F   F
  0.7659700000000029  0.7340299999999971  0.2490000000000023   F   F   F
  0.2340299999999971  0.2659700000000029  0.2490000000000023   F   F   F
  0.5986693883518492  0.8969958443680888  0.5282112462325628   T   T   T
  0.4156708883052775  0.0441001670360749  0.4463964447203628   T   T   T
  0.0913800686395621  0.5965048536083349  0.5423383247784473   T   T   T
  0.9304761607567836  0.4013341548235950  0.4955868308822295   T   T   T
  0.5997696550532602  0.9101372077381840  0.9558962418018275   T   T   T
  0.3965432043965385  0.0528663235853962  0.0139765441826984   T   T   T
  0.1191402425046498  0.4762696717579756 -0.0039910970555447   T   T   T
  0.8701701383100384  0.5455443198918853  0.0142799224976707   T   T   T
  0.0000000000000000  0.0000000000000000  0.2537999999999982   F   F   F
  0.5000000000000000  0.5000000000000000  0.2537999999999982   F   F   F
  0.0000000000000000  0.0000000000000000  0.7537000000000020   F   F   F
  0.5000000000000000  0.5000000000000000  0.7537000000000020   F   F   F

  0.00000000E+00  0.00000000E+00  0.00000000E+00
  0.00000000E+00  0.00000000E+00  0.00000000E+00
  0.00000000E+00  0.00000000E+00  0.00000000E+00
  0.00000000E+00  0.00000000E+00  0.00000000E+00
  0.00000000E+00  0.00000000E+00  0.00000000E+00
  0.00000000E+00  0.00000000E+00  0.00000000E+00
  0.00000000E+00  0.00000000E+00  0.00000000E+00
  0.00000000E+00  0.00000000E+00  0.00000000E+00
  0.00000000E+00  0.00000000E+00  0.00000000E+00
  0.00000000E+00  0.00000000E+00  0.00000000E+00
  0.00000000E+00  0.00000000E+00  0.00000000E+00
  0.00000000E+00  0.00000000E+00  0.00000000E+00
  0.00000000E+00  0.00000000E+00  0.00000000E+00
  0.00000000E+00  0.00000000E+00  0.00000000E+00
  0.00000000E+00  0.00000000E+00  0.00000000E+00
  0.00000000E+00  0.00000000E+00  0.00000000E+00
  0.00000000E+00  0.00000000E+00  0.00000000E+00
  0.00000000E+00  0.00000000E+00  0.00000000E+00
  0.00000000E+00  0.00000000E+00  0.00000000E+00
  0.00000000E+00  0.00000000E+00  0.00000000E+00
  0.00000000E+00  0.00000000E+00  0.00000000E+00
  0.00000000E+00  0.00000000E+00  0.00000000E+00
  0.00000000E+00  0.00000000E+00  0.00000000E+00
  0.00000000E+00  0.00000000E+00  0.00000000E+00
  0.00000000E+00  0.00000000E+00  0.00000000E+00
  0.00000000E+00  0.00000000E+00  0.00000000E+00
  0.00000000E+00  0.00000000E+00  0.00000000E+00
  0.00000000E+00  0.00000000E+00  0.00000000E+00
  0.00000000E+00  0.00000000E+00  0.00000000E+00
  0.00000000E+00  0.00000000E+00  0.00000000E+00
  0.00000000E+00  0.00000000E+00  0.00000000E+00
  0.00000000E+00  0.00000000E+00  0.00000000E+00
  0.00000000E+00  0.00000000E+00  0.00000000E+00
  0.00000000E+00  0.00000000E+00  0.00000000E+00
  0.00000000E+00  0.00000000E+00  0.00000000E+00
  0.00000000E+00  0.00000000E+00  0.00000000E+00
  0.00000000E+00  0.00000000E+00  0.00000000E+00
  0.00000000E+00  0.00000000E+00  0.00000000E+00
  0.00000000E+00  0.00000000E+00  0.00000000E+00
  0.00000000E+00  0.00000000E+00  0.00000000E+00
  0.00000000E+00  0.00000000E+00  0.00000000E+00
  0.00000000E+00  0.00000000E+00  0.00000000E+00
  0.00000000E+00  0.00000000E+00  0.00000000E+00
  0.00000000E+00  0.00000000E+00  0.00000000E+00
  0.00000000E+00  0.00000000E+00  0.00000000E+00
  0.00000000E+00  0.00000000E+00  0.00000000E+00
  0.00000000E+00  0.00000000E+00  0.00000000E+00
  0.00000000E+00  0.00000000E+00  0.00000000E+00
