 C  H  I  N Sn 
 1.0000000000000000
     8.8378999999999994    0.0000000000000000    0.0000000000000000
     0.0000000000000000    8.8378999999999994    0.0000000000000000
     0.0000000000000000    0.0000000000000000   12.4065999999999992
 C   H   I   N   Sn 
   4  20  12   8   4
Selective dynamics
Direct
  0.4792461592938035  0.0325415667062548  0.4763336759957038 T T T      
 -0.0212488467491547  0.5325415667062547  0.4760725610214578 T T T      
  0.5249462692553194  0.0325415667062548  0.0407829672383195 T T T      
  0.0317145274481100  0.5325415667062550  0.0340285868455678 T T T      
  0.4903147634095397 -0.0358004602458493  0.3177079240046566 T T T      
  0.6269050779002427 -0.1474785738248670  0.4792992311381577 T T T      
  0.5893113899237760 -0.0592223138536067  0.6031159629784081 T T T      
  0.3731616959763095  0.1193268890113273  0.3456873084488717 T T T      
  0.4252628313202075  0.1171770570376683  0.5291653250023646 T T T      
 -0.0062956607669521  0.4641995397541506  0.3176085767520232 T T T      
  0.1263149277703649  0.3525214261751329  0.4808734050604695 T T T      
  0.0856935049390597  0.4407776861463932  0.6042039028551980 T T T      
 -0.1241163689820943  0.6193268890113272  0.3441272172511726 T T T      
 -0.0765183071333782  0.6171770570376682  0.5282250263675808 T T T      
  0.3067412760526871 -0.0358004602458493  0.0081807348913715 T T T      
  0.5521569909076248 -0.1474785738248670 -0.0626436361455557 T T T      
  0.7179494235978898 -0.0592223138536067 -0.0168240978163431 T T T      
  0.3272082501508163  0.1193268890113273  0.0949847509536248 T T T      
  0.5897531301252472  0.1171770570376683  0.0870294878829755 T T T      
 -0.1895025762534998  0.4641995397541508  0.0538086746944859 T T T      
  0.0101736110505645  0.3525214261751329 -0.0700738986944289 T T T      
  0.1878743831505042  0.4407776861463932 -0.0652012566755894 T T T      
 -0.1304785498175476  0.6193268890113272  0.1311367834867109 T T T      
  0.1141267096592120  0.6171770570376682  0.0627255233706976 T T T      
  0.0000000000000000  0.0000000000000000  0.0083500000000000 F F F
  0.5000000000000000  0.5000000000000000  0.0083500000000000 F F F
  0.6987000000000000  0.1987000000000000  0.7504000000000000 F F F
  0.3013000000000000  0.8013000000000000  0.7504000000000000 F F F
  0.8013000000000000  0.6987000000000000  0.7504000000000000 F F F
  0.1987000000000000  0.3013000000000000  0.7504000000000000 F F F
  0.0000000000000000  0.0000000000000000  0.5097000000000000 F F F
  0.5000000000000000  0.5000000000000000  0.5097000000000000 F F F
  0.7340300000000000  0.2340300000000000  0.2490000000000000 F F F
  0.2659700000000000  0.7659700000000000  0.2490000000000000 F F F
  0.7659700000000000  0.7340300000000000  0.2490000000000000 F F F
  0.2340300000000000  0.2659700000000000  0.2490000000000000 F F F
  0.5727642900291733 -0.0634088287496794  0.5210393345410322 T T T 
  0.4446754883761811  0.0359360382436109  0.3738861070260818 T T T
  0.0711597699148830  0.4365911712503205  0.5219340565096112 T T T
 -0.0533043277994782  0.5359360382436108  0.3732108022223468 T T T
  0.6015606588436861 -0.0634088287496794 -0.0180214291691970 T T T
  0.3774934438602062  0.0359360382436109  0.0490800229306267 T T T
  0.0772794265943393  0.4365911712503207 -0.0393404722607241 T T T
 -0.1039128467121944  0.5359360382436106  0.0760708678205558 T T T
  0.0000000000000000  0.0000000000000000  0.2538000000000000 F F F
  0.5000000000000000  0.5000000000000000  0.2538000000000000 F F F
  0.0000000000000000  0.0000000000000000  0.7536999999999999 F F F
  0.5000000000000000  0.5000000000000000  0.7536999999999999 F F F
