&CONTROL
   calculation      = 'vc-relax'
   outdir           = './'
   prefix           = 'cubic'
   pseudo_dir       = '/work/e89/e89/ahlawat/PP/'
/
&SYSTEM
   ecutwfc          = 70.0
   ecutrho          = 700.0
   occupations      = 'fixed'
   vdw_corr         = 'grimme-d3'
   ntyp             = 3
   nat              = 20
   ibrav            = 0
/
&ELECTRONS
   electron_maxstep = 500
   conv_thr         = 1e-08
/
&IONS
   ion_dynamics     = 'bfgs'
/
&CELL
   cell_dynamics    = 'bfgs'
/

ATOMIC_SPECIES
Br 79.904 None
Cs 132.90545196 Cs.pbe-spn-rrkjus_psl.1.0.0.UPF
Pb 207.2 Pb.pbe-dn-rrkjus_psl.0.2.2.UPF

K_POINTS automatic
2 4 2  0 0 0

CELL_PARAMETERS angstrom
11.74800000000000 0.00000000000000 0.00000000000000
0.00000000000000 5.87400000000000 0.00000000000000
0.00000000000000 0.00000000000000 11.74800000000000

ATOMIC_POSITIONS angstrom
Br 2.9370000000 2.9370000000 0.0000000000 
Br 2.9370000000 0.0000000000 2.9370000000 
Br 0.0000000000 2.9370000000 2.9370000000 
Br 2.9370000000 2.9370000000 5.8740000000 
Br 2.9370000000 0.0000000000 8.8110000000 
Br 0.0000000000 2.9370000000 8.8110000000 
Br 8.8110000000 2.9370000000 0.0000000000 
Br 8.8110000000 0.0000000000 2.9370000000 
Br 5.8740000000 2.9370000000 2.9370000000 
Br 8.8110000000 2.9370000000 5.8740000000 
Br 8.8110000000 0.0000000000 8.8110000000 
Br 5.8740000000 2.9370000000 8.8110000000 
Cs 0.0000000000 0.0000000000 0.0000000000 
Cs 0.0000000000 0.0000000000 5.8740000000 
Cs 5.8740000000 0.0000000000 0.0000000000 
Cs 5.8740000000 0.0000000000 5.8740000000 
Pb 2.9370000000 2.9370000000 2.9370000000 
Pb 2.9370000000 2.9370000000 8.8110000000 
Pb 8.8110000000 2.9370000000 2.9370000000 
Pb 8.8110000000 2.9370000000 8.8110000000 

