&CONTROL
   calculation      = 'vc-relax'
   outdir           = './'
   prefix           = 'hexagonal'
   pseudo_dir       = '/work/e89/e89/ahlawat/PP/'
/
&SYSTEM
   ecutwfc          = 70.0
   ecutrho          = 700.0
   occupations      = 'fixed'
   vdw_corr         = 'grimme-d3'
   ntyp             = 3
   nat              = 20
   ibrav            = 0
/
&ELECTRONS
   electron_maxstep = 500
   conv_thr         = 1e-08
/
&IONS
   ion_dynamics     = 'bfgs'
/
&CELL
   cell_dynamics    = 'bfgs'
/

ATOMIC_SPECIES
Br 79.904 None
Cs 132.90545196 Cs.pbe-spn-rrkjus_psl.1.0.0.UPF
Pb 207.2 Pb.pbe-dn-rrkjus_psl.0.2.2.UPF

K_POINTS automatic
2 6 1  0 0 0

CELL_PARAMETERS angstrom
4.59700000000000 0.00000000000000 0.00000000000000
0.00000000000000 9.72000000000000 0.00000000000000
0.00000000000000 0.00000000000000 16.81000000000000

ATOMIC_POSITIONS angstrom
Br 1.1492500000 8.1162000000 8.4050000000 
Br 1.1492500000 3.2562000000 0.0000000000 
Br 3.4477500000 1.6038000000 8.4050000000 
Br 3.4477500000 6.4638000000 0.0000000000 
Br 3.4477500000 5.1321600000 10.3549600000 
Br 3.4477500000 0.2721600000 14.8600400000 
Br 1.1492500000 4.5878400000 6.4550400000 
Br 1.1492500000 9.4478400000 1.9499600000 
Br 3.4477500000 7.7954400000 4.8580900000 
Br 3.4477500000 2.9354400000 3.5469100000 
Br 1.1492500000 1.9245600000 11.9519100000 
Br 1.1492500000 6.7845600000 13.2630900000 
Cs 1.1492500000 5.7250800000 2.8745100000 
Cs 1.1492500000 0.8650800000 5.5304900000 
Cs 3.4477500000 3.9949200000 13.9354900000 
Cs 3.4477500000 8.8549200000 11.2795100000 
Pb 3.4477500000 6.4443600000 7.3459700000 
Pb 3.4477500000 1.5843600000 1.0590300000 
Pb 1.1492500000 3.2756400000 9.4640300000 
Pb 1.1492500000 8.1356400000 15.7509700000 

