&CONTROL
   calculation      = 'vc-relax'
   outdir           = './'
   prefix           = 'orthorhombic'
   pseudo_dir       = '/work/e89/e89/ahlawat/PP/'
/
&SYSTEM
   ecutwfc          = 70.0
   ecutrho          = 700.0
   occupations      = 'fixed'
   vdw_corr         = 'grimme-d3'
   ntyp             = 3
   nat              = 20
   ibrav            = 0
/
&ELECTRONS
   electron_maxstep = 500
   conv_thr         = 1e-08
/
&IONS
   ion_dynamics     = 'bfgs'
/
&CELL
   cell_dynamics    = 'bfgs'
/

ATOMIC_SPECIES
Br 79.904 None
Cs 132.90545196 Cs.pbe-spn-rrkjus_psl.1.0.0.UPF
Pb 207.2 Pb.pbe-dn-rrkjus_psl.0.2.2.UPF

K_POINTS automatic
3 3 2  0 0 0

CELL_PARAMETERS angstrom
8.20700000000000 0.00000000000000 0.00000000000000
0.00000000000000 8.25500000000000 0.00000000000000
0.00000000000000 0.00000000000000 11.75900000000000

ATOMIC_POSITIONS angstrom
Br 3.7259780000 0.0412750000 2.9397500000 
Br 0.3775220000 4.1687750000 2.9397500000 
Br 4.4810220000 8.2137250000 8.8192500000 
Br 7.8294780000 4.0862250000 8.8192500000 
Br 5.8023490000 5.8197750000 0.2939750000 
Br 6.5081510000 1.6922750000 5.5855250000 
Br 2.4046510000 2.4352250000 6.1734750000 
Br 1.6988490000 6.5627250000 11.4650250000 
Br 2.4046510000 2.4352250000 11.4650250000 
Br 1.6988490000 6.5627250000 6.1734750000 
Br 5.8023490000 5.8197750000 5.5855250000 
Br 6.5081510000 1.6922750000 0.2939750000 
Cs 4.1855700000 3.8881050000 2.9397500000 
Cs 8.1249300000 8.0156050000 2.9397500000 
Cs 4.0214300000 4.3668950000 8.8192500000 
Cs 0.0820700000 0.2393950000 8.8192500000 
Pb 0.0000000000 4.1275000000 0.0000000000 
Pb 4.1035000000 0.0000000000 5.8795000000 
Pb 0.0000000000 4.1275000000 5.8795000000 
Pb 4.1035000000 0.0000000000 0.0000000000 

