&CONTROL
   calculation      = 'vc-relax'
   outdir           = './'
   prefix           = 'tetragonal'
   pseudo_dir       = '/work/e89/e89/ahlawat/PP/'
/
&SYSTEM
   ecutwfc          = 70.0
   ecutrho          = 700.0
   occupations      = 'fixed'
   vdw_corr         = 'grimme-d3'
   ntyp             = 3
   nat              = 20
   ibrav            = 0
/
&ELECTRONS
   electron_maxstep = 500
   conv_thr         = 1e-08
/
&IONS
   ion_dynamics     = 'bfgs'
/
&CELL
   cell_dynamics    = 'bfgs'
/

ATOMIC_SPECIES
Br 79.904 None
Cs 132.90545196 Cs.pbe-spn-rrkjus_psl.1.0.0.UPF
Pb 207.2 Pb.pbe-dn-rrkjus_psl.0.2.2.UPF

K_POINTS automatic
3 3 2  0 0 0

CELL_PARAMETERS angstrom
8.25900000000000 0.00000000000000 0.00000000000000
0.00000000000000 8.25900000000000 0.00000000000000
0.00000000000000 0.00000000000000 11.79400000000000

ATOMIC_POSITIONS angstrom
Br 1.8838779000 6.0133779000 2.9485000000 
Br 6.3751221000 2.2456221000 2.9485000000 
Br 2.2456221000 1.8838779000 2.9485000000 
Br 6.0133779000 6.3751221000 2.9485000000 
Br 0.0000000000 0.0000000000 0.0000000000 
Br 4.1295000000 4.1295000000 0.0000000000 
Br 1.8838779000 6.0133779000 8.8455000000 
Br 6.3751221000 2.2456221000 8.8455000000 
Br 2.2456221000 1.8838779000 8.8455000000 
Br 6.0133779000 6.3751221000 8.8455000000 
Br 0.0000000000 0.0000000000 5.8970000000 
Br 4.1295000000 4.1295000000 5.8970000000 
Cs 0.0000000000 4.1295000000 0.0000000000 
Cs 4.1295000000 0.0000000000 0.0000000000 
Cs 0.0000000000 4.1295000000 5.8970000000 
Cs 4.1295000000 0.0000000000 5.8970000000 
Pb 0.0000000000 0.0000000000 2.9485000000 
Pb 4.1295000000 4.1295000000 2.9485000000 
Pb 0.0000000000 0.0000000000 8.8455000000 
Pb 4.1295000000 4.1295000000 8.8455000000 

