 C  H  I  N Sn                          
   1.0000000000000000     
    14.5960078724859059   -0.0122620626857668    0.0249330371142209
    -0.0058586912051265    8.6097707646938737   -0.1118313526331764
     0.0172725410105326   -0.1060080861919955    7.8620970056531876
   C    H    I    N    Sn
     4    20    12     8     4
Direct
  0.6617101417948855  0.5313194671721791  0.3104221417333602
  0.3209326043271187  0.4633003166729673  0.7936362339504570
  0.8415738210619883  0.0666968876437403  0.7581830787170724
  0.1784027510299349  0.0246854464454483  0.2042414608463091
  0.6754038424101382  0.4567179070585215  0.0601505914446000
  0.6576927679218543  0.2922142291689757  0.3194017350055793
  0.6429258315077991  0.3936648806402380  0.5132223119205107
  0.6777636090849176  0.6582432953818848  0.1004356364053603
  0.6577518828739402  0.6370285522168689  0.3908037193664212
  0.3619836889273129  0.5848020005314910  0.5830716857974723
  0.4460401786181070  0.5567999203051655  0.8585575893507132
  0.3929214216964295  0.4407966861547915  0.0116013608206419
  0.2566348989920820  0.4906014773871368  0.5680057015295236
  0.2648360984507778  0.3908797112992642  0.8398883590824516
  0.8390454702746828  0.8381858467839501  0.8288789168693240
  0.8551244068905197  0.9397414216974698  0.5329946246297864
  0.8539183192929098  0.1404487691317123  0.5155987335661022
  0.8328152340086808  0.9795830617282451  0.9938056784309294
  0.8387540822499184  0.1860125100839483  0.8095600170972312
  0.1326763779174487  0.9452584219446406  0.4351651882210227
  0.1802002965650179  0.7859741961150267  0.1744084848038756
  0.2163332590409727  0.8934693146460944  0.9995002139748832
  0.1413535932098015  0.1463063555744628  0.4178449995671106
  0.1934422663200966  0.1319427392908135  0.1377079938965410
  0.6035012740399458  0.2402659039719190  0.8153056784371998
  0.4173900225271693  0.7445026312706513  0.2942280684624852
  0.9302632029227008  0.7757199240901318  0.2553851504902948
  0.0789232454510411  0.2540605740841415  0.7453696802700257
  0.3296462518033411  0.0177854460488719  0.7611553508229285
  0.6718840805528750  0.9777236497705402  0.2593934999565305
  0.1712403380742663  0.4785720764739780  0.2339968230206868
  0.8276901697020180  0.5326785774281521  0.7338412206531446
  0.4146376595200133  0.2454993561287842  0.2716935245398995
  0.5809373671535578  0.7360947415483498  0.7512177206433158
  0.0873463507923377  0.7569920186196679  0.7105287463249494
  0.8945881428371892  0.2732874467753604  0.1984098517371230
  0.6540324164485148  0.3970715132140814  0.3847051708392176
  0.6740826952185064  0.5484406506890742  0.1462186266318024
  0.3902238538563222  0.4924686100448449  0.8957162724986530
  0.3135894436884215  0.5158525474154092  0.6386616749863915
  0.8485776969187306  0.0467167592961882  0.5922361393657052
  0.8374950050159528  0.9533983685146538  0.8665762913374789
  0.1906193562481751  0.8922219557345547  0.1208865034299285
  0.1489765174781395  0.0385231261108540  0.3621500634494886
  0.4965263723500822  0.9967968962255725  0.0217576181374157
  0.5016771311724908  0.9968043272976748  0.5234098427682148
  0.9965929625543956  0.5091108852645133  0.4816156394329936
  0.9978670423015245  0.5132071738960315  0.9819192228780345

  0.00000000E+00  0.00000000E+00  0.00000000E+00
  0.00000000E+00  0.00000000E+00  0.00000000E+00
  0.00000000E+00  0.00000000E+00  0.00000000E+00
  0.00000000E+00  0.00000000E+00  0.00000000E+00
  0.00000000E+00  0.00000000E+00  0.00000000E+00
  0.00000000E+00  0.00000000E+00  0.00000000E+00
  0.00000000E+00  0.00000000E+00  0.00000000E+00
  0.00000000E+00  0.00000000E+00  0.00000000E+00
  0.00000000E+00  0.00000000E+00  0.00000000E+00
  0.00000000E+00  0.00000000E+00  0.00000000E+00
  0.00000000E+00  0.00000000E+00  0.00000000E+00
  0.00000000E+00  0.00000000E+00  0.00000000E+00
  0.00000000E+00  0.00000000E+00  0.00000000E+00
  0.00000000E+00  0.00000000E+00  0.00000000E+00
  0.00000000E+00  0.00000000E+00  0.00000000E+00
  0.00000000E+00  0.00000000E+00  0.00000000E+00
  0.00000000E+00  0.00000000E+00  0.00000000E+00
  0.00000000E+00  0.00000000E+00  0.00000000E+00
  0.00000000E+00  0.00000000E+00  0.00000000E+00
  0.00000000E+00  0.00000000E+00  0.00000000E+00
  0.00000000E+00  0.00000000E+00  0.00000000E+00
  0.00000000E+00  0.00000000E+00  0.00000000E+00
  0.00000000E+00  0.00000000E+00  0.00000000E+00
  0.00000000E+00  0.00000000E+00  0.00000000E+00
  0.00000000E+00  0.00000000E+00  0.00000000E+00
  0.00000000E+00  0.00000000E+00  0.00000000E+00
  0.00000000E+00  0.00000000E+00  0.00000000E+00
  0.00000000E+00  0.00000000E+00  0.00000000E+00
  0.00000000E+00  0.00000000E+00  0.00000000E+00
  0.00000000E+00  0.00000000E+00  0.00000000E+00
  0.00000000E+00  0.00000000E+00  0.00000000E+00
  0.00000000E+00  0.00000000E+00  0.00000000E+00
  0.00000000E+00  0.00000000E+00  0.00000000E+00
  0.00000000E+00  0.00000000E+00  0.00000000E+00
  0.00000000E+00  0.00000000E+00  0.00000000E+00
  0.00000000E+00  0.00000000E+00  0.00000000E+00
  0.00000000E+00  0.00000000E+00  0.00000000E+00
  0.00000000E+00  0.00000000E+00  0.00000000E+00
  0.00000000E+00  0.00000000E+00  0.00000000E+00
  0.00000000E+00  0.00000000E+00  0.00000000E+00
  0.00000000E+00  0.00000000E+00  0.00000000E+00
  0.00000000E+00  0.00000000E+00  0.00000000E+00
  0.00000000E+00  0.00000000E+00  0.00000000E+00
  0.00000000E+00  0.00000000E+00  0.00000000E+00
  0.00000000E+00  0.00000000E+00  0.00000000E+00
  0.00000000E+00  0.00000000E+00  0.00000000E+00
  0.00000000E+00  0.00000000E+00  0.00000000E+00
  0.00000000E+00  0.00000000E+00  0.00000000E+00
