 C  H  I  N Sn                          
   1.0000000000000000     
    14.5960215262468793   -0.0122538571973584    0.0249840278206479
    -0.0058542893009806    8.6098311390759399   -0.1117774470803586
     0.0172999341870926   -0.1059590368118128    7.8621387319302212
   C    H    I    N    Sn
     4    20    12     8     4
Direct
  0.6617107995087831  0.5313315153971416  0.3104342429536083
  0.3209279374593563  0.4632947319203364  0.7936496005150685
  0.8415737483251622  0.0667079901702191  0.7581925246087391
  0.1784027942389773  0.0246839207776723  0.2042376301986377
  0.6754069962938372  0.4567050050466222  0.0601339453507619
  0.6576932509826935  0.2922152731178823  0.3194011691994293
  0.6429241039497372  0.3936655554290398  0.5132311641312813
  0.6777657668808760  0.6582431825834062  0.1004352753186198
  0.6577510311831974  0.6370338296367676  0.3908086046564493
  0.3619812870396348  0.5848006342096589  0.5830674894214704
  0.4460479651211833  0.5568039508250822  0.8585572880204364
  0.3929233252048995  0.4408021814642956  0.0115902188199313
  0.2566377454118053  0.4906036794720873  0.5680005048258711
  0.2648392846007475  0.3908785826652192  0.8398894424642238
  0.8390454245332725  0.8381728366112157  0.8288748006683277
  0.8551251303570185  0.9397448761002514  0.5329875700087811
  0.8539180987439350  0.1404476789234333  0.5155999937030525
  0.8328160777387588  0.9795750970825801 -0.0062115296642969
  0.8387542571799075  0.1860066621760246  0.8095640530981436
  0.1326753689556551  0.9452589208233559  0.4351653560945508
  0.1802011687521669  0.7859819614657571  0.1744068651117014
  0.2163283639247587  0.8934683859905990 -0.0004813850758006
  0.1413544028696735  0.1462876511640313  0.4178405871667964
  0.1934425422108240  0.1319401752089316  0.1377137761372317
  0.6035034685588510  0.2402641510450682  0.8153088523076526
  0.4173881630266617  0.7445030449404639  0.2942237087530832
  0.9302612202673974  0.7757188987662468  0.2553873751064640
  0.0789248278657545  0.2540620702582661  0.7453732739063452
  0.3296453782324876  0.0177863005244013  0.7611569028135406
  0.6718820461093726 -0.0222777997918182  0.2593933053698760
  0.1712406304589184  0.4785719807990578  0.2339966797838829
  0.8276864818408053  0.5326751400952047  0.7338401096917629
  0.4146381357683035  0.2454983887360916  0.2716955884869493
  0.5809362076915919  0.7360968924031571  0.7512121295995156
  0.0873431476246587  0.7569904710304524  0.7105291150928298
  0.8945867744877691  0.2732896189125116  0.1984071656816976
  0.6540321747622414  0.3970551345383936  0.3846940325465882
  0.6740840795830307  0.5484439821354075  0.1462226601444795
  0.3902167572042665  0.4924560971296644  0.8957229457459078
  0.3135979897302132  0.5158579782213958  0.6386606218782803
  0.8485769875306717  0.0467164291632658  0.5922311567122078
  0.8374958869461715  0.9534146257022831  0.8665946985627205
  0.1906247735377840  0.8922153033679520  0.1208572912817790
  0.1489729974064685  0.0385553763158410  0.3621701216557074
  0.4965255482386702 -0.0032034497690659  0.0217548959623340
  0.5016772751192000 -0.0031941711935069  0.5234111671570332
 -0.0034074178937872  0.5091093273213131  0.4816115615327283
 -0.0021349624693134  0.5132085060753758 -0.0180797093652201

  0.00000000E+00  0.00000000E+00  0.00000000E+00
  0.00000000E+00  0.00000000E+00  0.00000000E+00
  0.00000000E+00  0.00000000E+00  0.00000000E+00
  0.00000000E+00  0.00000000E+00  0.00000000E+00
  0.00000000E+00  0.00000000E+00  0.00000000E+00
  0.00000000E+00  0.00000000E+00  0.00000000E+00
  0.00000000E+00  0.00000000E+00  0.00000000E+00
  0.00000000E+00  0.00000000E+00  0.00000000E+00
  0.00000000E+00  0.00000000E+00  0.00000000E+00
  0.00000000E+00  0.00000000E+00  0.00000000E+00
  0.00000000E+00  0.00000000E+00  0.00000000E+00
  0.00000000E+00  0.00000000E+00  0.00000000E+00
  0.00000000E+00  0.00000000E+00  0.00000000E+00
  0.00000000E+00  0.00000000E+00  0.00000000E+00
  0.00000000E+00  0.00000000E+00  0.00000000E+00
  0.00000000E+00  0.00000000E+00  0.00000000E+00
  0.00000000E+00  0.00000000E+00  0.00000000E+00
  0.00000000E+00  0.00000000E+00  0.00000000E+00
  0.00000000E+00  0.00000000E+00  0.00000000E+00
  0.00000000E+00  0.00000000E+00  0.00000000E+00
  0.00000000E+00  0.00000000E+00  0.00000000E+00
  0.00000000E+00  0.00000000E+00  0.00000000E+00
  0.00000000E+00  0.00000000E+00  0.00000000E+00
  0.00000000E+00  0.00000000E+00  0.00000000E+00
  0.00000000E+00  0.00000000E+00  0.00000000E+00
  0.00000000E+00  0.00000000E+00  0.00000000E+00
  0.00000000E+00  0.00000000E+00  0.00000000E+00
  0.00000000E+00  0.00000000E+00  0.00000000E+00
  0.00000000E+00  0.00000000E+00  0.00000000E+00
  0.00000000E+00  0.00000000E+00  0.00000000E+00
  0.00000000E+00  0.00000000E+00  0.00000000E+00
  0.00000000E+00  0.00000000E+00  0.00000000E+00
  0.00000000E+00  0.00000000E+00  0.00000000E+00
  0.00000000E+00  0.00000000E+00  0.00000000E+00
  0.00000000E+00  0.00000000E+00  0.00000000E+00
  0.00000000E+00  0.00000000E+00  0.00000000E+00
  0.00000000E+00  0.00000000E+00  0.00000000E+00
  0.00000000E+00  0.00000000E+00  0.00000000E+00
  0.00000000E+00  0.00000000E+00  0.00000000E+00
  0.00000000E+00  0.00000000E+00  0.00000000E+00
  0.00000000E+00  0.00000000E+00  0.00000000E+00
  0.00000000E+00  0.00000000E+00  0.00000000E+00
  0.00000000E+00  0.00000000E+00  0.00000000E+00
  0.00000000E+00  0.00000000E+00  0.00000000E+00
  0.00000000E+00  0.00000000E+00  0.00000000E+00
  0.00000000E+00  0.00000000E+00  0.00000000E+00
  0.00000000E+00  0.00000000E+00  0.00000000E+00
  0.00000000E+00  0.00000000E+00  0.00000000E+00
