 C  H  I  N Sn                          
   1.0000000000000000     
    14.6370000000000005    0.0000000000000000    0.0000000000000000
     0.0000000000000000    8.7859999999999996    0.0000000000000000
     0.0000000000000000    0.0000000000000000    8.2880000000000003
   C    H    I    N    Sn
     4    20    12     8     4
Selective dynamics
Direct
  0.6564674319855319  0.5387983434313481  0.2704147780979645   T   T   T
  0.3413532320019728  0.4886920920958871  0.8047467997560470   T   T   T
  0.8456066236855611  0.0342662402284904  0.7700660581082429   T   T   T
  0.1738261107783738  0.0363857606186005  0.2177500873832701   T   T   T
  0.6592137427779960  0.4256325538405091  0.0530353775109317   T   T   T
  0.6548798865906650  0.3135067617623986  0.3312318901838786   T   T   T
  0.6503164628894595  0.4428560604966614  0.4900803088202697   T   T   T
  0.6632354478232032  0.6217904357933709  0.0444884885353875   T   T   T
  0.6559161784708404  0.6525313923366425  0.3217924734248949   T   T   T
  0.3414402189711157  0.6555483127735524  0.6333561719750824   T   T   T
  0.4506302332440704  0.6226718651096644  0.8587314814620471   T   T   T
  0.4274053613980173  0.4725601507062774  0.9917694705805332   T   T   T
  0.2583953766895961  0.5171166990165862  0.6129819282072986   T   T   T
  0.3051104839776482  0.3872595922572713  0.8429586844068762   T   T   T
  0.8564098910862040  0.8474710963705546  0.9146656744731700   T   T   T
  0.8391402394227386  0.8514792674127449  0.6187959627800798   T   T   T
  0.8312409039965527  0.0277183424458315  0.5276074383971153   T   T   T
  0.8632183787712677  0.0238535737192836  0.0104091815141836   T   T   T
  0.8450297832434684  0.1579618009580954  0.7721950269357482   T   T   T
  0.1403590526118070 -0.0644530429653323  0.4332079849174955   T   T   T
  0.1787427107834031  0.8082518659017871  0.1702238325657250   T   T   T
  0.2050684632694456 -0.0705448690484529  0.0109219527323283   T   T   T
  0.1448849771339528  0.1323541479947528  0.4317688652650401   T   T   T
  0.1840334914021121  0.1472651000487956  0.1629461976199601   T   T   T
  0.5891000000000020  0.2396999999999991  0.7969999999999970   F   F   F
  0.4108999999999980  0.7603000000000009  0.2969999999999970   F   F   F
  0.9108999999999980  0.7396999999999991  0.2969999999999970   F   F   F
  0.0891000000000020  0.2603000000000009  0.7969999999999970   F   F   F
  0.3340200000000024  0.9986999999999995  0.7571000000000012   F   F   F
  0.6659799999999976  0.0013000000000005  0.2571000000000012   F   F   F
  0.1659799999999976  0.4986999999999995  0.2571000000000012   F   F   F
  0.8340200000000024  0.5013000000000005  0.7571000000000012   F   F   F
  0.4117000000000033  0.2400999999999982  0.2049999999999983   F   F   F
  0.5882999999999967  0.7599000000000018  0.7049999999999983   F   F   F
  0.0882999999999967  0.7400999999999982  0.7049999999999983   F   F   F
  0.9117000000000033  0.2599000000000018  0.2049999999999983   F   F   F
  0.6537259722378234  0.4234423753107132  0.3699922266151855   T   T   T
  0.6594384507601129  0.5267883173874767  0.1129042997588628   T   T   T
  0.4089281449859816  0.5363084005549156  0.8948289896580259   T   T   T
  0.3140556816412425  0.5560518057149179  0.6724831606475753   T   T   T
  0.8373611510982005  0.9664613794954433  0.6302492807963594   T   T   T
  0.8543080076936000 -0.0374503700104862  0.9076654762019949   T   T   T
  0.1838979854767563 -0.0838305943045486  0.1264911076639630   T   T   T
  0.1519883213180757  0.0333527332708211  0.3710885742717291   T   T   T
  0.5000000000000000  0.0026000000000010  0.0000000000000000   F   F   F
  0.5000000000000000  0.9973999999999990  0.5000000000000000   F   F   F
  0.0000000000000000  0.5026000000000010  0.5000000000000000   F   F   F
  0.0000000000000000  0.4973999999999990  0.0000000000000000   F   F   F

  0.00000000E+00  0.00000000E+00  0.00000000E+00
  0.00000000E+00  0.00000000E+00  0.00000000E+00
  0.00000000E+00  0.00000000E+00  0.00000000E+00
  0.00000000E+00  0.00000000E+00  0.00000000E+00
  0.00000000E+00  0.00000000E+00  0.00000000E+00
  0.00000000E+00  0.00000000E+00  0.00000000E+00
  0.00000000E+00  0.00000000E+00  0.00000000E+00
  0.00000000E+00  0.00000000E+00  0.00000000E+00
  0.00000000E+00  0.00000000E+00  0.00000000E+00
  0.00000000E+00  0.00000000E+00  0.00000000E+00
  0.00000000E+00  0.00000000E+00  0.00000000E+00
  0.00000000E+00  0.00000000E+00  0.00000000E+00
  0.00000000E+00  0.00000000E+00  0.00000000E+00
  0.00000000E+00  0.00000000E+00  0.00000000E+00
  0.00000000E+00  0.00000000E+00  0.00000000E+00
  0.00000000E+00  0.00000000E+00  0.00000000E+00
  0.00000000E+00  0.00000000E+00  0.00000000E+00
  0.00000000E+00  0.00000000E+00  0.00000000E+00
  0.00000000E+00  0.00000000E+00  0.00000000E+00
  0.00000000E+00  0.00000000E+00  0.00000000E+00
  0.00000000E+00  0.00000000E+00  0.00000000E+00
  0.00000000E+00  0.00000000E+00  0.00000000E+00
  0.00000000E+00  0.00000000E+00  0.00000000E+00
  0.00000000E+00  0.00000000E+00  0.00000000E+00
  0.00000000E+00  0.00000000E+00  0.00000000E+00
  0.00000000E+00  0.00000000E+00  0.00000000E+00
  0.00000000E+00  0.00000000E+00  0.00000000E+00
  0.00000000E+00  0.00000000E+00  0.00000000E+00
  0.00000000E+00  0.00000000E+00  0.00000000E+00
  0.00000000E+00  0.00000000E+00  0.00000000E+00
  0.00000000E+00  0.00000000E+00  0.00000000E+00
  0.00000000E+00  0.00000000E+00  0.00000000E+00
  0.00000000E+00  0.00000000E+00  0.00000000E+00
  0.00000000E+00  0.00000000E+00  0.00000000E+00
  0.00000000E+00  0.00000000E+00  0.00000000E+00
  0.00000000E+00  0.00000000E+00  0.00000000E+00
  0.00000000E+00  0.00000000E+00  0.00000000E+00
  0.00000000E+00  0.00000000E+00  0.00000000E+00
  0.00000000E+00  0.00000000E+00  0.00000000E+00
  0.00000000E+00  0.00000000E+00  0.00000000E+00
  0.00000000E+00  0.00000000E+00  0.00000000E+00
  0.00000000E+00  0.00000000E+00  0.00000000E+00
  0.00000000E+00  0.00000000E+00  0.00000000E+00
  0.00000000E+00  0.00000000E+00  0.00000000E+00
  0.00000000E+00  0.00000000E+00  0.00000000E+00
  0.00000000E+00  0.00000000E+00  0.00000000E+00
  0.00000000E+00  0.00000000E+00  0.00000000E+00
  0.00000000E+00  0.00000000E+00  0.00000000E+00
