 C  H  I  N Sn                          
   1.0000000000000000     
     8.9052770576545726    0.0027268945908007   -0.1186223922071123
     0.0022337051732156    9.0316511869284390   -0.0030706990931549
    -0.0787775989182513   -0.0013535725545038    6.5183773019202658
   C    H    I    N    Sn
     2    10     6     4     2
Direct
  0.5147647923780713  0.9679543290516270  0.9715219560661790
  0.9812904355634749  0.4693315248870860  0.0236215723068303
  0.4003226967693894  0.0047097113585906  0.2341906325588337
  0.5084608852447448  0.1930785969391995  0.0017683177388528
  0.5989333676000594  0.1259559075299812  0.7883509645576023
  0.4277995252806152  0.8203288851615339  0.1653390464247421
  0.5555976109732201  0.8802419300475454  0.8732805095307049
  0.9906559893334669  0.6942828990113996  0.9932496267549763
  0.0964675053748881  0.5040661215505188  0.7611888931592595
  0.0667863156441172  0.3202590298395359  0.8302202717910244
  0.8988899898922806  0.6288154259412498  0.2063025249265531
  0.9391604200282051  0.3823761449157562  0.1218336015532078
  0.2556498922295934  0.2376113447212401  0.4397642067892301
  0.7588070219664561  0.7358951866024731  0.5412531300518951
  0.7388432313277721  0.2353240500088553  0.4552037826304666
  0.2418400079351809  0.7371504937066652  0.5570752316592648
  0.0004253347749774  0.0191213046934310 -0.0381141672846609
  0.4973750606249928  0.5183079341172122  0.0348528199630628
  0.5405968640528459  0.1048017801276444  0.9170435965206447
  0.4434530363353771  0.9292182383069353  0.1358788211975586
  0.0523436310915040  0.4293650507048611  0.8595419621715882
  0.9573001293852502  0.6066027562045829  0.0779927952514507
 -0.0010396818378629 -0.0330185593510835  0.5194426526296281
  0.4984339410918996  0.4666775684612549  0.4775488460286346

  0.00000000E+00  0.00000000E+00  0.00000000E+00
  0.00000000E+00  0.00000000E+00  0.00000000E+00
  0.00000000E+00  0.00000000E+00  0.00000000E+00
  0.00000000E+00  0.00000000E+00  0.00000000E+00
  0.00000000E+00  0.00000000E+00  0.00000000E+00
  0.00000000E+00  0.00000000E+00  0.00000000E+00
  0.00000000E+00  0.00000000E+00  0.00000000E+00
  0.00000000E+00  0.00000000E+00  0.00000000E+00
  0.00000000E+00  0.00000000E+00  0.00000000E+00
  0.00000000E+00  0.00000000E+00  0.00000000E+00
  0.00000000E+00  0.00000000E+00  0.00000000E+00
  0.00000000E+00  0.00000000E+00  0.00000000E+00
  0.00000000E+00  0.00000000E+00  0.00000000E+00
  0.00000000E+00  0.00000000E+00  0.00000000E+00
  0.00000000E+00  0.00000000E+00  0.00000000E+00
  0.00000000E+00  0.00000000E+00  0.00000000E+00
  0.00000000E+00  0.00000000E+00  0.00000000E+00
  0.00000000E+00  0.00000000E+00  0.00000000E+00
  0.00000000E+00  0.00000000E+00  0.00000000E+00
  0.00000000E+00  0.00000000E+00  0.00000000E+00
  0.00000000E+00  0.00000000E+00  0.00000000E+00
  0.00000000E+00  0.00000000E+00  0.00000000E+00
  0.00000000E+00  0.00000000E+00  0.00000000E+00
  0.00000000E+00  0.00000000E+00  0.00000000E+00
