SYSTEM=tetra-FASnI3
ISMEAR=0
SIGMA=0.05
EDIFF=5E-6
EDIFFG=-0.01
ALGO=ALL
ISTART=0
IBRION=2
ISIF=3
NSW=1000
ISYM=0

#DIPOL=0.5 0.5 0.5
#IDIPOL = 1
#LDIPOL = .TRUE.
#LHFCALC = .TRUE.

METAGGA=R2SCAN

ENCUT=700
PREC=Accurate  #default (Normal) usually safe, structures/energies change little with Accurate
LASPH=.TRUE.
LREAL=.FALSE.
ISPIN=1
NELM=200
NELMIN=8
NCORE=4
KPAR=2

LWAVE=.FALSE.
LCHARG=.FALSE.
