 C  H  I  N Sn                          
   1.0000000000000000     
     8.8820999999999994    0.0000000000000000    0.0000000000000000
     0.0000000000000000    8.8820999999999994    0.0000000000000000
     0.0000000000000000    0.0000000000000000    6.2698000000000000
   C    H    I    N    Sn
     2    10     6     4     2
Direct
  0.5170779437497657  0.9620630004915528  0.9675801633448803
  0.9719363766815896  0.4623714579419272  0.0210843576522312
  0.3744581693446609  0.0077852879309879  0.2144721177063588
  0.5382903750313479  0.1885909232864320  0.0177588954351395
  0.6469915727648773  0.1141133711577493  0.8154246800427331
  0.3811203766788060  0.8221912605336296  0.1299166013087826
  0.5579331402334941  0.8712835866098467  0.8670097678392632
 -0.0293253199483385  0.6901703725593441 -0.0278938627089538
  0.1408905149759843  0.4996271094983071  0.8073631163495567
  0.1142766780109953  0.3144943901189244  0.8867521454869299
  0.8375970226023723  0.6217363090145287  0.1476754623282404
  0.9153971610367406  0.3738839417048281  0.1096983993695487
  0.2777000000000029  0.2222999999999971  0.5000000000000000
  0.7222999999999971  0.7777000000000029  0.5000000000000000
  0.7777000000000029  0.2777000000000029  0.5000000000000000
  0.2222999999999971  0.7222999999999971  0.5000000000000000
  0.0000000000000000  0.0000000000000000  0.0000000000000000
  0.5000000000000000  0.5000000000000000  0.0000000000000000
  0.5730132156413659  0.0962373386095311  0.9360292824946974
  0.4155728839712204  0.9298077730918173  0.1108894319512894
  0.0856304987725834  0.4242355293988563  0.9006807953084567
  0.9222973935130485  0.5998660025898329  0.0439102410683902
  0.0000000000000000  0.0000000000000000  0.5000000000000000
  0.5000000000000000  0.5000000000000000  0.5000000000000000

  0.00000000E+00  0.00000000E+00  0.00000000E+00
  0.00000000E+00  0.00000000E+00  0.00000000E+00
  0.00000000E+00  0.00000000E+00  0.00000000E+00
  0.00000000E+00  0.00000000E+00  0.00000000E+00
  0.00000000E+00  0.00000000E+00  0.00000000E+00
  0.00000000E+00  0.00000000E+00  0.00000000E+00
  0.00000000E+00  0.00000000E+00  0.00000000E+00
  0.00000000E+00  0.00000000E+00  0.00000000E+00
  0.00000000E+00  0.00000000E+00  0.00000000E+00
  0.00000000E+00  0.00000000E+00  0.00000000E+00
  0.00000000E+00  0.00000000E+00  0.00000000E+00
  0.00000000E+00  0.00000000E+00  0.00000000E+00
  0.00000000E+00  0.00000000E+00  0.00000000E+00
  0.00000000E+00  0.00000000E+00  0.00000000E+00
  0.00000000E+00  0.00000000E+00  0.00000000E+00
  0.00000000E+00  0.00000000E+00  0.00000000E+00
  0.00000000E+00  0.00000000E+00  0.00000000E+00
  0.00000000E+00  0.00000000E+00  0.00000000E+00
  0.00000000E+00  0.00000000E+00  0.00000000E+00
  0.00000000E+00  0.00000000E+00  0.00000000E+00
  0.00000000E+00  0.00000000E+00  0.00000000E+00
  0.00000000E+00  0.00000000E+00  0.00000000E+00
  0.00000000E+00  0.00000000E+00  0.00000000E+00
  0.00000000E+00  0.00000000E+00  0.00000000E+00
