Br C  H  N  Pb
 1.0000000000000000
     5.9861820000000003    0.0000000000000000    0.0000000000000000
     0.0000000000000000    5.9861820000000003    0.0000000000000000
     0.0000000000000000    0.0000000000000000    5.9861820000000003
 Br  C   H   N   Pb 
   3   1   5   2   1
Direct
  0.4999999999999999  0.0000000000000000  0.0000000000000000
  0.0000000000000000  0.4999999999999999  0.0000000000000000
  0.0000000000000000  0.0000000000000000  0.4999999999999999
  0.4651221505165672  0.5480438303401415  0.5387086734242802
  0.5157387204771864  0.4471447931909200  0.2134596248654493
  0.6812866440117530  0.2822650752003878  0.5676085632037757
  0.5992644134815086  0.4125651562871308  0.8170162825146821
  0.3376619429919714  0.6761722434087718  0.2530508033494981
  0.3744132479138730  0.6729982670746075  0.6392736078014842
  0.5927494094271716  0.4063842550048108  0.6452874576977954
  0.4365563635090888  0.5530553719204008  0.3222100771570769
  0.0000000000000000  0.0000000000000000  0.0000000000000000
