Br C  H  I  N  Sn
 1.0000000000000000
    12.0180000000000007    0.0000000000000000    0.0000000000000000
     0.0000000000000000   12.0180000000000007    0.0000000000000000
     0.0000000000000000    0.0000000000000000   12.0180000000000007
 Br  C   H   I   N   Sn 
  12   8  40  12  16   8
Cartesian
  3.0645900000000008  3.0910296000000006  0.2619924000000000
  8.9534099999999999  9.1000296000000009  5.7470076000000008
  9.0735900000000012  2.9179703999999997 11.7560076000000002
  0.2619924000000000  3.0645900000000008  3.0910296000000006
  6.2709924000000008  2.9444099999999995  8.9269704000000001
  8.9269704000000001  6.2709924000000008  2.9444099999999995
  2.9179703999999997 11.7560076000000002  9.0735900000000012
  3.0645900000000008  2.9179703999999997  6.2709924000000008
  2.9444099999999995  9.1000296000000009  0.2619924000000000
 11.7560076000000002  8.9534099999999999  8.9269704000000001
  5.7470076000000008  9.0735900000000012  3.0910296000000006
  0.2619924000000000  2.9444099999999995  9.1000296000000009
  5.8002148452235662  0.2875991123932096  0.2317171640963052
 -0.2087851547764341  0.2875991123932096  6.2407171640963055
  5.8002148452235662  6.2965991123932099  6.2407171640963055
 -0.2087851547764341  6.2965991123932099  0.2317171640963052
 -0.2087851547764341  0.2875991123932096  0.2317171640963052
  5.8002148452235662  0.2875991123932096  6.2407171640963055
 -0.2087851547764341  6.2965991123932099  6.2407171640963055
  5.8002148452235662  6.2965991123932099  0.2317171640963052
  6.1032148452235653 -0.3164008876067914 -1.7152828359036945
  7.0942148452235649 -1.3034008876067915  0.4047171640963052
  6.6032148452235653 -0.5234008876067904  1.8977171640963055
  5.0372148452235663  1.0545991123932090 -1.4782828359036944
  5.2572148452235652  1.0355991123932089  0.8337171640963055
  0.0942148452235649 -0.3164008876067914  4.2937171640963054
  1.0852148452235646 -1.3034008876067915  6.4137171640963055
  0.5942148452235649 -0.5234008876067904  7.9067171640963059
 -0.9717851547764340  1.0545991123932090  4.5307171640963055
 -0.7517851547764351  1.0355991123932089  6.8427171640963058
  6.1032148452235653  5.6925991123932089  4.2937171640963054
  7.0942148452235649  4.7055991123932088  6.4137171640963055
  6.6032148452235653  5.4855991123932100  7.9067171640963059
  5.0372148452235663  7.0635991123932094  4.5307171640963055
  5.2572148452235652  7.0445991123932092  6.8427171640963058
  0.0942148452235649  5.6925991123932089 -1.7152828359036945
  1.0852148452235646  4.7055991123932088  0.4047171640963052
  0.5942148452235649  5.4855991123932100  1.8977171640963055
 -0.9717851547764340  7.0635991123932094 -1.4782828359036944
 -0.7517851547764351  7.0445991123932092  0.8337171640963055
  0.0942148452235649 -0.3164008876067914 -1.7152828359036945
  1.0852148452235646 -1.3034008876067915  0.4047171640963052
  0.5942148452235649 -0.5234008876067904  1.8977171640963055
 -0.9717851547764340  1.0545991123932090 -1.4782828359036944
 -0.7517851547764351  1.0355991123932089  0.8337171640963055
  6.1032148452235653 -0.3164008876067914  4.2937171640963054
  7.0942148452235649 -1.3034008876067915  6.4137171640963055
  6.6032148452235653 -0.5234008876067904  7.9067171640963059
  5.0372148452235663  1.0545991123932090  4.5307171640963055
  5.2572148452235652  1.0355991123932089  6.8427171640963058
  0.0942148452235649  5.6925991123932089  4.2937171640963054
  1.0852148452235646  4.7055991123932088  6.4137171640963055
  0.5942148452235649  5.4855991123932100  7.9067171640963059
 -0.9717851547764340  7.0635991123932094  4.5307171640963055
 -0.7517851547764351  7.0445991123932092  6.8427171640963058
  6.1032148452235653  5.6925991123932089 -1.7152828359036945
  7.0942148452235649  4.7055991123932088  0.4047171640963052
  6.6032148452235653  5.4855991123932100  1.8977171640963055
  5.0372148452235663  7.0635991123932094 -1.4782828359036944
  5.2572148452235652  7.0445991123932092  0.8337171640963055
  3.0045000000000002  9.1060386000000015  5.7193662000000005
  6.2986338000000002  9.0135000000000005  8.9209613999999995
  0.2896338000000000  9.0135000000000005  3.0970385999999999
  2.9119614000000005 11.7283662000000000  3.0045000000000002
  8.9209613999999995  6.2986338000000002  9.0135000000000005
  9.0135000000000005  9.1060386000000015  0.2896338000000000
  9.0135000000000005  2.9119614000000005  6.2986338000000002
  5.7193662000000005  3.0045000000000002  3.0970385999999999
  9.1060386000000015  0.2896338000000000  9.0135000000000005
  2.9119614000000005  6.2986338000000002  9.0135000000000005
  3.0970385999999999  5.7193662000000005  3.0045000000000002
  8.9209613999999995 11.7283662000000000  3.0045000000000002
  6.5642148452235656 -0.5604008876067912  0.8697171640963051
  5.6292148452235651  0.3175991123932089 -1.0642828359036947
  0.5552148452235652 -0.5604008876067912  6.8787171640963054
 -0.3797851547764353  0.3175991123932089  4.9447171640963052
  6.5642148452235656  5.4485991123932092  6.8787171640963054
  5.6292148452235651  6.3265991123932093  4.9447171640963052
  0.5552148452235652  5.4485991123932092  0.8697171640963051
 -0.3797851547764353  6.3265991123932093 -1.0642828359036947
  0.5552148452235652 -0.5604008876067912  0.8697171640963051
 -0.3797851547764353  0.3175991123932089 -1.0642828359036947
  6.5642148452235656 -0.5604008876067912  6.8787171640963054
  5.6292148452235651  0.3175991123932089  4.9447171640963052
  0.5552148452235652  5.4485991123932092  6.8787171640963054
 -0.3797851547764353  6.3265991123932093  4.9447171640963052
  6.5642148452235656  5.4485991123932092  0.8697171640963051
  5.6292148452235651  6.3265991123932093 -1.0642828359036947
  3.0393522000000002  3.0393522000000002  3.0393522000000002
  2.9696478000000002  8.9786478000000010  9.0483522000000001
  8.9786478000000010  9.0483522000000001  2.9696478000000002
  9.0483522000000001  2.9696478000000002  8.9786478000000010
  8.9786478000000010  8.9786478000000010  8.9786478000000010
  9.0483522000000001  3.0393522000000002  2.9696478000000002
  3.0393522000000002  2.9696478000000002  9.0483522000000001
  2.9696478000000002  9.0483522000000001  3.0393522000000002
