Br Cs Sn
 1.0000000000000000
    23.1799999999999997    0.0000000000000000    0.0000000000000000
     0.0000000000000000   23.1799999999999997    0.0000000000000000
     0.0000000000000000    0.0000000000000000   17.3849999999999980
 Br  Cs  Sn 
 144  48  48
Direct
  0.1250000000000000  0.1250000000000000  0.0000000000000000
  0.1250000000000000  0.0000000000000000  0.1666666666666667
  0.0000000000000000  0.1250000000000000  0.1666666666666667
  0.1250000000000000  0.1250000000000000  0.3333333333333334
  0.1250000000000000  0.0000000000000000  0.5000000000000000
  0.0000000000000000  0.1250000000000000  0.5000000000000000
  0.1250000000000000  0.1250000000000000  0.6666666666666667
  0.1250000000000000  0.0000000000000000  0.8333333333333335
  0.0000000000000000  0.1250000000000000  0.8333333333333335
  0.1250000000000000  0.3750000000000000  0.0000000000000000
  0.1250000000000000  0.2500000000000000  0.1666666666666667
  0.0000000000000000  0.3750000000000000  0.1666666666666667
  0.1250000000000000  0.3750000000000000  0.3333333333333334
  0.1250000000000000  0.2500000000000000  0.5000000000000000
  0.0000000000000000  0.3750000000000000  0.5000000000000000
  0.1250000000000000  0.3750000000000000  0.6666666666666667
  0.1250000000000000  0.2500000000000000  0.8333333333333335
  0.0000000000000000  0.3750000000000000  0.8333333333333335
  0.1250000000000000  0.6250000000000001  0.0000000000000000
  0.1250000000000000  0.5000000000000000  0.1666666666666667
  0.0000000000000000  0.6250000000000001  0.1666666666666667
  0.1250000000000000  0.6250000000000001  0.3333333333333334
  0.1250000000000000  0.5000000000000000  0.5000000000000000
  0.0000000000000000  0.6250000000000001  0.5000000000000000
  0.1250000000000000  0.6250000000000001  0.6666666666666667
  0.1250000000000000  0.5000000000000000  0.8333333333333335
  0.0000000000000000  0.6250000000000001  0.8333333333333335
  0.1250000000000000  0.8750000000000000  0.0000000000000000
  0.1250000000000000  0.7500000000000000  0.1666666666666667
  0.0000000000000000  0.8750000000000000  0.1666666666666667
  0.1250000000000000  0.8750000000000000  0.3333333333333334
  0.1250000000000000  0.7500000000000000  0.5000000000000000
  0.0000000000000000  0.8750000000000000  0.5000000000000000
  0.1250000000000000  0.8750000000000000  0.6666666666666667
  0.1250000000000000  0.7500000000000000  0.8333333333333335
  0.0000000000000000  0.8750000000000000  0.8333333333333335
  0.3750000000000000  0.1250000000000000  0.0000000000000000
  0.3750000000000000  0.0000000000000000  0.1666666666666667
  0.2500000000000000  0.1250000000000000  0.1666666666666667
  0.3750000000000000  0.1250000000000000  0.3333333333333334
  0.3750000000000000  0.0000000000000000  0.5000000000000000
  0.2500000000000000  0.1250000000000000  0.5000000000000000
  0.3750000000000000  0.1250000000000000  0.6666666666666667
  0.3750000000000000  0.0000000000000000  0.8333333333333335
  0.2500000000000000  0.1250000000000000  0.8333333333333335
  0.3750000000000000  0.3750000000000000  0.0000000000000000
  0.3750000000000000  0.2500000000000000  0.1666666666666667
  0.2500000000000000  0.3750000000000000  0.1666666666666667
  0.3750000000000000  0.3750000000000000  0.3333333333333334
  0.3750000000000000  0.2500000000000000  0.5000000000000000
  0.2500000000000000  0.3750000000000000  0.5000000000000000
  0.3750000000000000  0.3750000000000000  0.6666666666666667
  0.3750000000000000  0.2500000000000000  0.8333333333333335
  0.2500000000000000  0.3750000000000000  0.8333333333333335
  0.3750000000000000  0.6250000000000001  0.0000000000000000
  0.3750000000000000  0.5000000000000000  0.1666666666666667
  0.2500000000000000  0.6250000000000001  0.1666666666666667
  0.3750000000000000  0.6250000000000001  0.3333333333333334
  0.3750000000000000  0.5000000000000000  0.5000000000000000
  0.2500000000000000  0.6250000000000001  0.5000000000000000
  0.3750000000000000  0.6250000000000001  0.6666666666666667
  0.3750000000000000  0.5000000000000000  0.8333333333333335
  0.2500000000000000  0.6250000000000001  0.8333333333333335
  0.3750000000000000  0.8750000000000000  0.0000000000000000
  0.3750000000000000  0.7500000000000000  0.1666666666666667
  0.2500000000000000  0.8750000000000000  0.1666666666666667
  0.3750000000000000  0.8750000000000000  0.3333333333333334
  0.3750000000000000  0.7500000000000000  0.5000000000000000
  0.2500000000000000  0.8750000000000000  0.5000000000000000
  0.3750000000000000  0.8750000000000000  0.6666666666666667
  0.3750000000000000  0.7500000000000000  0.8333333333333335
  0.2500000000000000  0.8750000000000000  0.8333333333333335
  0.6250000000000001  0.1250000000000000  0.0000000000000000
  0.6250000000000001  0.0000000000000000  0.1666666666666667
  0.5000000000000000  0.1250000000000000  0.1666666666666667
  0.6250000000000001  0.1250000000000000  0.3333333333333334
  0.6250000000000001  0.0000000000000000  0.5000000000000000
  0.5000000000000000  0.1250000000000000  0.5000000000000000
  0.6250000000000001  0.1250000000000000  0.6666666666666667
  0.6250000000000001  0.0000000000000000  0.8333333333333335
  0.5000000000000000  0.1250000000000000  0.8333333333333335
  0.6250000000000001  0.3750000000000000  0.0000000000000000
  0.6250000000000001  0.2500000000000000  0.1666666666666667
  0.5000000000000000  0.3750000000000000  0.1666666666666667
  0.6250000000000001  0.3750000000000000  0.3333333333333334
  0.6250000000000001  0.2500000000000000  0.5000000000000000
  0.5000000000000000  0.3750000000000000  0.5000000000000000
  0.6250000000000001  0.3750000000000000  0.6666666666666667
  0.6250000000000001  0.2500000000000000  0.8333333333333335
  0.5000000000000000  0.3750000000000000  0.8333333333333335
  0.6250000000000001  0.6250000000000001  0.0000000000000000
  0.6250000000000001  0.5000000000000000  0.1666666666666667
  0.5000000000000000  0.6250000000000001  0.1666666666666667
  0.6250000000000001  0.6250000000000001  0.3333333333333334
  0.6250000000000001  0.5000000000000000  0.5000000000000000
  0.5000000000000000  0.6250000000000001  0.5000000000000000
  0.6250000000000001  0.6250000000000001  0.6666666666666667
  0.6250000000000001  0.5000000000000000  0.8333333333333335
  0.5000000000000000  0.6250000000000001  0.8333333333333335
  0.6250000000000001  0.8750000000000000  0.0000000000000000
  0.6250000000000001  0.7500000000000000  0.1666666666666667
  0.5000000000000000  0.8750000000000000  0.1666666666666667
  0.6250000000000001  0.8750000000000000  0.3333333333333334
  0.6250000000000001  0.7500000000000000  0.5000000000000000
  0.5000000000000000  0.8750000000000000  0.5000000000000000
  0.6250000000000001  0.8750000000000000  0.6666666666666667
  0.6250000000000001  0.7500000000000000  0.8333333333333335
  0.5000000000000000  0.8750000000000000  0.8333333333333335
  0.8750000000000000  0.1250000000000000  0.0000000000000000
  0.8750000000000000  0.0000000000000000  0.1666666666666667
  0.7500000000000000  0.1250000000000000  0.1666666666666667
  0.8750000000000000  0.1250000000000000  0.3333333333333334
  0.8750000000000000  0.0000000000000000  0.5000000000000000
  0.7500000000000000  0.1250000000000000  0.5000000000000000
  0.8750000000000000  0.1250000000000000  0.6666666666666667
  0.8750000000000000  0.0000000000000000  0.8333333333333335
  0.7500000000000000  0.1250000000000000  0.8333333333333335
  0.8750000000000000  0.3750000000000000  0.0000000000000000
  0.8750000000000000  0.2500000000000000  0.1666666666666667
  0.7500000000000000  0.3750000000000000  0.1666666666666667
  0.8750000000000000  0.3750000000000000  0.3333333333333334
  0.8750000000000000  0.2500000000000000  0.5000000000000000
  0.7500000000000000  0.3750000000000000  0.5000000000000000
  0.8750000000000000  0.3750000000000000  0.6666666666666667
  0.8750000000000000  0.2500000000000000  0.8333333333333335
  0.7500000000000000  0.3750000000000000  0.8333333333333335
  0.8750000000000000  0.6250000000000001  0.0000000000000000
  0.8750000000000000  0.5000000000000000  0.1666666666666667
  0.7500000000000000  0.6250000000000001  0.1666666666666667
  0.8750000000000000  0.6250000000000001  0.3333333333333334
  0.8750000000000000  0.5000000000000000  0.5000000000000000
  0.7500000000000000  0.6250000000000001  0.5000000000000000
  0.8750000000000000  0.6250000000000001  0.6666666666666667
  0.8750000000000000  0.5000000000000000  0.8333333333333335
  0.7500000000000000  0.6250000000000001  0.8333333333333335
  0.8750000000000000  0.8750000000000000  0.0000000000000000
  0.8750000000000000  0.7500000000000000  0.1666666666666667
  0.7500000000000000  0.8750000000000000  0.1666666666666667
  0.8750000000000000  0.8750000000000000  0.3333333333333334
  0.8750000000000000  0.7500000000000000  0.5000000000000000
  0.7500000000000000  0.8750000000000000  0.5000000000000000
  0.8750000000000000  0.8750000000000000  0.6666666666666667
  0.8750000000000000  0.7500000000000000  0.8333333333333335
  0.7500000000000000  0.8750000000000000  0.8333333333333335
  0.0000000000000000  0.0000000000000000  0.0000000000000000
  0.0000000000000000  0.0000000000000000  0.3333333333333334
  0.0000000000000000  0.0000000000000000  0.6666666666666667
  0.0000000000000000  0.2500000000000000  0.0000000000000000
  0.0000000000000000  0.2500000000000000  0.3333333333333334
  0.0000000000000000  0.2500000000000000  0.6666666666666667
  0.0000000000000000  0.5000000000000000  0.0000000000000000
  0.0000000000000000  0.5000000000000000  0.3333333333333334
  0.0000000000000000  0.5000000000000000  0.6666666666666667
  0.0000000000000000  0.7500000000000000  0.0000000000000000
  0.0000000000000000  0.7500000000000000  0.3333333333333334
  0.0000000000000000  0.7500000000000000  0.6666666666666667
  0.2500000000000000  0.0000000000000000  0.0000000000000000
  0.2500000000000000  0.0000000000000000  0.3333333333333334
  0.2500000000000000  0.0000000000000000  0.6666666666666667
  0.2500000000000000  0.2500000000000000  0.0000000000000000
  0.2500000000000000  0.2500000000000000  0.3333333333333334
  0.2500000000000000  0.2500000000000000  0.6666666666666667
  0.2500000000000000  0.5000000000000000  0.0000000000000000
  0.2500000000000000  0.5000000000000000  0.3333333333333334
  0.2500000000000000  0.5000000000000000  0.6666666666666667
  0.2500000000000000  0.7500000000000000  0.0000000000000000
  0.2500000000000000  0.7500000000000000  0.3333333333333334
  0.2500000000000000  0.7500000000000000  0.6666666666666667
  0.5000000000000000  0.0000000000000000  0.0000000000000000
  0.5000000000000000  0.0000000000000000  0.3333333333333334
  0.5000000000000000  0.0000000000000000  0.6666666666666667
  0.5000000000000000  0.2500000000000000  0.0000000000000000
  0.5000000000000000  0.2500000000000000  0.3333333333333334
  0.5000000000000000  0.2500000000000000  0.6666666666666667
  0.5000000000000000  0.5000000000000000  0.0000000000000000
  0.5000000000000000  0.5000000000000000  0.3333333333333334
  0.5000000000000000  0.5000000000000000  0.6666666666666667
  0.5000000000000000  0.7500000000000000  0.0000000000000000
  0.5000000000000000  0.7500000000000000  0.3333333333333334
  0.5000000000000000  0.7500000000000000  0.6666666666666667
  0.7500000000000000  0.0000000000000000  0.0000000000000000
  0.7500000000000000  0.0000000000000000  0.3333333333333334
  0.7500000000000000  0.0000000000000000  0.6666666666666667
  0.7500000000000000  0.2500000000000000  0.0000000000000000
  0.7500000000000000  0.2500000000000000  0.3333333333333334
  0.7500000000000000  0.2500000000000000  0.6666666666666667
  0.7500000000000000  0.5000000000000000  0.0000000000000000
  0.7500000000000000  0.5000000000000000  0.3333333333333334
  0.7500000000000000  0.5000000000000000  0.6666666666666667
  0.7500000000000000  0.7500000000000000  0.0000000000000000
  0.7500000000000000  0.7500000000000000  0.3333333333333334
  0.7500000000000000  0.7500000000000000  0.6666666666666667
  0.1250000000000000  0.1250000000000000  0.1666666666666667
  0.1250000000000000  0.1250000000000000  0.5000000000000000
  0.1250000000000000  0.1250000000000000  0.8333333333333335
  0.1250000000000000  0.3750000000000000  0.1666666666666667
  0.1250000000000000  0.3750000000000000  0.5000000000000000
  0.1250000000000000  0.3750000000000000  0.8333333333333335
  0.1250000000000000  0.6250000000000001  0.1666666666666667
  0.1250000000000000  0.6250000000000001  0.5000000000000000
  0.1250000000000000  0.6250000000000001  0.8333333333333335
  0.1250000000000000  0.8750000000000000  0.1666666666666667
  0.1250000000000000  0.8750000000000000  0.5000000000000000
  0.1250000000000000  0.8750000000000000  0.8333333333333335
  0.3750000000000000  0.1250000000000000  0.1666666666666667
  0.3750000000000000  0.1250000000000000  0.5000000000000000
  0.3750000000000000  0.1250000000000000  0.8333333333333335
  0.3750000000000000  0.3750000000000000  0.1666666666666667
  0.3750000000000000  0.3750000000000000  0.5000000000000000
  0.3750000000000000  0.3750000000000000  0.8333333333333335
  0.3750000000000000  0.6250000000000001  0.1666666666666667
  0.3750000000000000  0.6250000000000001  0.5000000000000000
  0.3750000000000000  0.6250000000000001  0.8333333333333335
  0.3750000000000000  0.8750000000000000  0.1666666666666667
  0.3750000000000000  0.8750000000000000  0.5000000000000000
  0.3750000000000000  0.8750000000000000  0.8333333333333335
  0.6250000000000001  0.1250000000000000  0.1666666666666667
  0.6250000000000001  0.1250000000000000  0.5000000000000000
  0.6250000000000001  0.1250000000000000  0.8333333333333335
  0.6250000000000001  0.3750000000000000  0.1666666666666667
  0.6250000000000001  0.3750000000000000  0.5000000000000000
  0.6250000000000001  0.3750000000000000  0.8333333333333335
  0.6250000000000001  0.6250000000000001  0.1666666666666667
  0.6250000000000001  0.6250000000000001  0.5000000000000000
  0.6250000000000001  0.6250000000000001  0.8333333333333335
  0.6250000000000001  0.8750000000000000  0.1666666666666667
  0.6250000000000001  0.8750000000000000  0.5000000000000000
  0.6250000000000001  0.8750000000000000  0.8333333333333335
  0.8750000000000000  0.1250000000000000  0.1666666666666667
  0.8750000000000000  0.1250000000000000  0.5000000000000000
  0.8750000000000000  0.1250000000000000  0.8333333333333335
  0.8750000000000000  0.3750000000000000  0.1666666666666667
  0.8750000000000000  0.3750000000000000  0.5000000000000000
  0.8750000000000000  0.3750000000000000  0.8333333333333335
  0.8750000000000000  0.6250000000000001  0.1666666666666667
  0.8750000000000000  0.6250000000000001  0.5000000000000000
  0.8750000000000000  0.6250000000000001  0.8333333333333335
  0.8750000000000000  0.8750000000000000  0.1666666666666667
  0.8750000000000000  0.8750000000000000  0.5000000000000000
  0.8750000000000000  0.8750000000000000  0.8333333333333335
