Br Cs Sn
 1.0000000000000000
    25.5161999999999978    0.0000000000000000    0.0000000000000000
     0.0000000000000000   17.0107999999999997    0.0000000000000000
     0.0000000000000000    0.0000000000000000   15.3146000000000004
 Br  Cs  Sn 
 120  24  48
Direct
  0.0000000000000000  0.0000000000000000  0.4999999999999999
  0.0000000000000000  0.0000000000000000  0.0000000000000000
  0.1666666666666667  0.2500000000000000  0.0000000000000000
  0.1666666666666667  0.2500000000000000  0.4999999999999999
  0.2198666666666667  0.0798000000000000  0.1280000000000000
  0.1134666666666667  0.4202000000000000  0.1280000000000000
  0.1134666666666667  0.0798000000000000  0.6280000000000000
  0.2198666666666667  0.4202000000000000  0.6280000000000000
  0.0532000000000000  0.1702000000000000  0.1280000000000000
  0.2801333333333333  0.3298000000000000  0.1280000000000000
  0.0532000000000000  0.3298000000000000  0.6280000000000000
  0.2801333333333333  0.1702000000000000  0.6280000000000000
  0.1134666666666667  0.4202000000000000  0.8720000000000000
  0.2198666666666667  0.0798000000000000  0.8720000000000000
  0.2198666666666667  0.4202000000000000  0.3720000000000000
  0.1134666666666667  0.0798000000000000  0.3720000000000000
  0.2801333333333333  0.3298000000000000  0.8720000000000000
  0.0532000000000000  0.1702000000000000  0.8720000000000000
  0.2801333333333333  0.1702000000000000  0.3720000000000000
  0.0532000000000000  0.3298000000000000  0.3720000000000000
  0.0000000000000000  0.5000000000000000  0.4999999999999999
  0.0000000000000000  0.5000000000000000  0.0000000000000000
  0.1666666666666667  0.7500000000000000  0.0000000000000000
  0.1666666666666667  0.7500000000000000  0.4999999999999999
  0.2198666666666667  0.5798000000000000  0.1280000000000000
  0.1134666666666667  0.9202000000000000  0.1280000000000000
  0.1134666666666667  0.5798000000000000  0.6280000000000000
  0.2198666666666667  0.9202000000000000  0.6280000000000000
  0.0532000000000000  0.6702000000000000  0.1280000000000000
  0.2801333333333333  0.8298000000000000  0.1280000000000000
  0.0532000000000000  0.8298000000000000  0.6280000000000000
  0.2801333333333333  0.6702000000000000  0.6280000000000000
  0.1134666666666667  0.9202000000000000  0.8720000000000000
  0.2198666666666667  0.5798000000000000  0.8720000000000000
  0.2198666666666667  0.9202000000000000  0.3720000000000000
  0.1134666666666667  0.5798000000000000  0.3720000000000000
  0.2801333333333333  0.8298000000000000  0.8720000000000000
  0.0532000000000000  0.6702000000000000  0.8720000000000000
  0.2801333333333333  0.6702000000000000  0.3720000000000000
  0.0532000000000000  0.8298000000000000  0.3720000000000000
  0.3333333333333333  0.0000000000000000  0.4999999999999999
  0.3333333333333333  0.0000000000000000  0.0000000000000000
  0.5000000000000000  0.2500000000000000  0.0000000000000000
  0.5000000000000000  0.2500000000000000  0.4999999999999999
  0.5532000000000000  0.0798000000000000  0.1280000000000000
  0.4468000000000000  0.4202000000000000  0.1280000000000000
  0.4468000000000000  0.0798000000000000  0.6280000000000000
  0.5532000000000000  0.4202000000000000  0.6280000000000000
  0.3865333333333333  0.1702000000000000  0.1280000000000000
  0.6134666666666667  0.3298000000000000  0.1280000000000000
  0.3865333333333333  0.3298000000000000  0.6280000000000000
  0.6134666666666667  0.1702000000000000  0.6280000000000000
  0.4468000000000000  0.4202000000000000  0.8720000000000000
  0.5532000000000000  0.0798000000000000  0.8720000000000000
  0.5532000000000000  0.4202000000000000  0.3720000000000000
  0.4468000000000000  0.0798000000000000  0.3720000000000000
  0.6134666666666667  0.3298000000000000  0.8720000000000000
  0.3865333333333333  0.1702000000000000  0.8720000000000000
  0.6134666666666667  0.1702000000000000  0.3720000000000000
  0.3865333333333333  0.3298000000000000  0.3720000000000000
  0.3333333333333333  0.5000000000000000  0.4999999999999999
  0.3333333333333333  0.5000000000000000  0.0000000000000000
  0.5000000000000000  0.7500000000000000  0.0000000000000000
  0.5000000000000000  0.7500000000000000  0.4999999999999999
  0.5532000000000000  0.5798000000000000  0.1280000000000000
  0.4468000000000000  0.9202000000000000  0.1280000000000000
  0.4468000000000000  0.5798000000000000  0.6280000000000000
  0.5532000000000000  0.9202000000000000  0.6280000000000000
  0.3865333333333333  0.6702000000000000  0.1280000000000000
  0.6134666666666667  0.8298000000000000  0.1280000000000000
  0.3865333333333333  0.8298000000000000  0.6280000000000000
  0.6134666666666667  0.6702000000000000  0.6280000000000000
  0.4468000000000000  0.9202000000000000  0.8720000000000000
  0.5532000000000000  0.5798000000000000  0.8720000000000000
  0.5532000000000000  0.9202000000000000  0.3720000000000000
  0.4468000000000000  0.5798000000000000  0.3720000000000000
  0.6134666666666667  0.8298000000000000  0.8720000000000000
  0.3865333333333333  0.6702000000000000  0.8720000000000000
  0.6134666666666667  0.6702000000000000  0.3720000000000000
  0.3865333333333333  0.8298000000000000  0.3720000000000000
  0.6666666666666666  0.0000000000000000  0.4999999999999999
  0.6666666666666666  0.0000000000000000  0.0000000000000000
  0.8333333333333334  0.2500000000000000  0.0000000000000000
  0.8333333333333334  0.2500000000000000  0.4999999999999999
  0.8865333333333334  0.0798000000000000  0.1280000000000000
  0.7801333333333335  0.4202000000000000  0.1280000000000000
  0.7801333333333335  0.0798000000000000  0.6280000000000000
  0.8865333333333334  0.4202000000000000  0.6280000000000000
  0.7198666666666667  0.1702000000000000  0.1280000000000000
  0.9468000000000000  0.3298000000000000  0.1280000000000000
  0.7198666666666667  0.3298000000000000  0.6280000000000000
  0.9468000000000000  0.1702000000000000  0.6280000000000000
  0.7801333333333335  0.4202000000000000  0.8720000000000000
  0.8865333333333334  0.0798000000000000  0.8720000000000000
  0.8865333333333334  0.4202000000000000  0.3720000000000000
  0.7801333333333335  0.0798000000000000  0.3720000000000000
  0.9468000000000000  0.3298000000000000  0.8720000000000000
  0.7198666666666667  0.1702000000000000  0.8720000000000000
  0.9468000000000000  0.1702000000000000  0.3720000000000000
  0.7198666666666667  0.3298000000000000  0.3720000000000000
  0.6666666666666666  0.5000000000000000  0.4999999999999999
  0.6666666666666666  0.5000000000000000  0.0000000000000000
  0.8333333333333334  0.7500000000000000  0.0000000000000000
  0.8333333333333334  0.7500000000000000  0.4999999999999999
  0.8865333333333334  0.5798000000000000  0.1280000000000000
  0.7801333333333335  0.9202000000000000  0.1280000000000000
  0.7801333333333335  0.5798000000000000  0.6280000000000000
  0.8865333333333334  0.9202000000000000  0.6280000000000000
  0.7198666666666667  0.6702000000000000  0.1280000000000000
  0.9468000000000000  0.8298000000000000  0.1280000000000000
  0.7198666666666667  0.8298000000000000  0.6280000000000000
  0.9468000000000000  0.6702000000000000  0.6280000000000000
  0.7801333333333335  0.9202000000000000  0.8720000000000000
  0.8865333333333334  0.5798000000000000  0.8720000000000000
  0.8865333333333334  0.9202000000000000  0.3720000000000000
  0.7801333333333335  0.5798000000000000  0.3720000000000000
  0.9468000000000000  0.8298000000000000  0.8720000000000000
  0.7198666666666667  0.6702000000000000  0.8720000000000000
  0.9468000000000000  0.6702000000000000  0.3720000000000000
  0.7198666666666667  0.8298000000000000  0.3720000000000000
  0.0000000000000000  0.0000000000000000  0.2500000000000000
  0.0000000000000000  0.0000000000000000  0.7500000000000000
  0.1666666666666667  0.2500000000000000  0.7500000000000000
  0.1666666666666667  0.2500000000000000  0.2500000000000000
  0.0000000000000000  0.5000000000000000  0.2500000000000000
  0.0000000000000000  0.5000000000000000  0.7500000000000000
  0.1666666666666667  0.7500000000000000  0.7500000000000000
  0.1666666666666667  0.7500000000000000  0.2500000000000000
  0.3333333333333333  0.0000000000000000  0.2500000000000000
  0.3333333333333333  0.0000000000000000  0.7500000000000000
  0.5000000000000000  0.2500000000000000  0.7500000000000000
  0.5000000000000000  0.2500000000000000  0.2500000000000000
  0.3333333333333333  0.5000000000000000  0.2500000000000000
  0.3333333333333333  0.5000000000000000  0.7500000000000000
  0.5000000000000000  0.7500000000000000  0.7500000000000000
  0.5000000000000000  0.7500000000000000  0.2500000000000000
  0.6666666666666666  0.0000000000000000  0.2500000000000000
  0.6666666666666666  0.0000000000000000  0.7500000000000000
  0.8333333333333334  0.2500000000000000  0.7500000000000000
  0.8333333333333334  0.2500000000000000  0.2500000000000000
  0.6666666666666666  0.5000000000000000  0.2500000000000000
  0.6666666666666666  0.5000000000000000  0.7500000000000000
  0.8333333333333334  0.7500000000000000  0.7500000000000000
  0.8333333333333334  0.7500000000000000  0.2500000000000000
  0.2269333333333333  0.0904000000000000  0.4999999999999999
  0.1064000000000000  0.4096000000000000  0.4999999999999999
  0.1064000000000000  0.0904000000000000  0.0000000000000000
  0.2269333333333333  0.4096000000000000  0.0000000000000000
  0.0602666666666667  0.1596000000000000  0.4999999999999999
  0.2730666666666667  0.3404000000000000  0.4999999999999999
  0.0602666666666667  0.3404000000000000  0.0000000000000000
  0.2730666666666667  0.1596000000000000  0.0000000000000000
  0.2269333333333333  0.5904000000000000  0.4999999999999999
  0.1064000000000000  0.9096000000000001  0.4999999999999999
  0.1064000000000000  0.5904000000000000  0.0000000000000000
  0.2269333333333333  0.9096000000000001  0.0000000000000000
  0.0602666666666667  0.6596000000000000  0.4999999999999999
  0.2730666666666667  0.8404000000000000  0.4999999999999999
  0.0602666666666667  0.8404000000000000  0.0000000000000000
  0.2730666666666667  0.6596000000000000  0.0000000000000000
  0.5602666666666667  0.0904000000000000  0.4999999999999999
  0.4397333333333334  0.4096000000000000  0.4999999999999999
  0.4397333333333334  0.0904000000000000  0.0000000000000000
  0.5602666666666667  0.4096000000000000  0.0000000000000000
  0.3936000000000001  0.1596000000000000  0.4999999999999999
  0.6064000000000001  0.3404000000000000  0.4999999999999999
  0.3936000000000001  0.3404000000000000  0.0000000000000000
  0.6064000000000001  0.1596000000000000  0.0000000000000000
  0.5602666666666667  0.5904000000000000  0.4999999999999999
  0.4397333333333334  0.9096000000000001  0.4999999999999999
  0.4397333333333334  0.5904000000000000  0.0000000000000000
  0.5602666666666667  0.9096000000000001  0.0000000000000000
  0.3936000000000001  0.6596000000000000  0.4999999999999999
  0.6064000000000001  0.8404000000000000  0.4999999999999999
  0.3936000000000001  0.8404000000000000  0.0000000000000000
  0.6064000000000001  0.6596000000000000  0.0000000000000000
  0.8936000000000001  0.0904000000000000  0.4999999999999999
  0.7730666666666668  0.4096000000000000  0.4999999999999999
  0.7730666666666668  0.0904000000000000  0.0000000000000000
  0.8936000000000001  0.4096000000000000  0.0000000000000000
  0.7269333333333333  0.1596000000000000  0.4999999999999999
  0.9397333333333333  0.3404000000000000  0.4999999999999999
  0.7269333333333333  0.3404000000000000  0.0000000000000000
  0.9397333333333333  0.1596000000000000  0.0000000000000000
  0.8936000000000001  0.5904000000000000  0.4999999999999999
  0.7730666666666668  0.9096000000000001  0.4999999999999999
  0.7730666666666668  0.5904000000000000  0.0000000000000000
  0.8936000000000001  0.9096000000000001  0.0000000000000000
  0.7269333333333333  0.6596000000000000  0.4999999999999999
  0.9397333333333333  0.8404000000000000  0.4999999999999999
  0.7269333333333333  0.8404000000000000  0.0000000000000000
  0.9397333333333333  0.6596000000000000  0.0000000000000000
