Br Cs Sn
 1.0000000000000000
    32.3100000000000023    0.0000000000000000    0.0000000000000000
     0.0000000000000000   21.5399999999999991    0.0000000000000000
     0.0000000000000000    0.0000000000000000   21.5399999999999991
 Br  Cs  Sn 
 288  96  48
Direct
  0.0000000000000000  0.0000000000000000  0.3775000000000000
  0.0000000000000000  0.1225000000000000  0.0000000000000000
  0.0816666666666667  0.0000000000000000  0.0000000000000000
  0.0000000000000000  0.0000000000000000  0.1225000000000000
  0.0000000000000000  0.3775000000000000  0.0000000000000000
  0.2516666666666666  0.0000000000000000  0.0000000000000000
  0.0000000000000000  0.2500000000000000  0.1275000000000000
  0.1666666666666667  0.0000000000000000  0.1275000000000000
  0.1666666666666667  0.2500000000000000  0.3775000000000000
  0.0000000000000000  0.3725000000000001  0.2500000000000000
  0.1666666666666667  0.1225000000000000  0.2500000000000000
  0.1666666666666667  0.3725000000000001  0.0000000000000000
  0.0816666666666667  0.2500000000000000  0.2500000000000000
  0.2483333333333333  0.0000000000000000  0.2500000000000000
  0.2483333333333333  0.2500000000000000  0.0000000000000000
  0.0000000000000000  0.2500000000000000  0.3725000000000001
  0.1666666666666667  0.0000000000000000  0.3725000000000001
  0.1666666666666667  0.2500000000000000  0.1225000000000000
  0.0000000000000000  0.1275000000000000  0.2500000000000000
  0.1666666666666667  0.3775000000000000  0.2500000000000000
  0.1666666666666667  0.1275000000000000  0.0000000000000000
  0.2516666666666666  0.2500000000000000  0.2500000000000000
  0.0850000000000000  0.0000000000000000  0.2500000000000000
  0.0850000000000000  0.2500000000000000  0.0000000000000000
  0.0000000000000000  0.0000000000000000  0.8775000000000002
  0.0000000000000000  0.1225000000000000  0.5000000000000000
  0.0816666666666667  0.0000000000000000  0.5000000000000000
  0.0000000000000000  0.0000000000000000  0.6225000000000001
  0.0000000000000000  0.3775000000000000  0.5000000000000000
  0.2516666666666666  0.0000000000000000  0.5000000000000000
  0.0000000000000000  0.2500000000000000  0.6275000000000001
  0.1666666666666667  0.0000000000000000  0.6275000000000001
  0.1666666666666667  0.2500000000000000  0.8775000000000002
  0.0000000000000000  0.3725000000000001  0.7500000000000001
  0.1666666666666667  0.1225000000000000  0.7500000000000001
  0.1666666666666667  0.3725000000000001  0.5000000000000000
  0.0816666666666667  0.2500000000000000  0.7500000000000001
  0.2483333333333333  0.0000000000000000  0.7500000000000001
  0.2483333333333333  0.2500000000000000  0.5000000000000000
  0.0000000000000000  0.2500000000000000  0.8725000000000001
  0.1666666666666667  0.0000000000000000  0.8725000000000001
  0.1666666666666667  0.2500000000000000  0.6225000000000001
  0.0000000000000000  0.1275000000000000  0.7500000000000001
  0.1666666666666667  0.3775000000000000  0.7500000000000001
  0.1666666666666667  0.1275000000000000  0.5000000000000000
  0.2516666666666666  0.2500000000000000  0.7500000000000001
  0.0850000000000000  0.0000000000000000  0.7500000000000001
  0.0850000000000000  0.2500000000000000  0.5000000000000000
  0.0000000000000000  0.5000000000000000  0.3775000000000000
  0.0000000000000000  0.6225000000000001  0.0000000000000000
  0.0816666666666667  0.5000000000000000  0.0000000000000000
  0.0000000000000000  0.5000000000000000  0.1225000000000000
  0.0000000000000000  0.8775000000000002  0.0000000000000000
  0.2516666666666666  0.5000000000000000  0.0000000000000000
  0.0000000000000000  0.7500000000000001  0.1275000000000000
  0.1666666666666667  0.5000000000000000  0.1275000000000000
  0.1666666666666667  0.7500000000000001  0.3775000000000000
  0.0000000000000000  0.8725000000000001  0.2500000000000000
  0.1666666666666667  0.6225000000000001  0.2500000000000000
  0.1666666666666667  0.8725000000000001  0.0000000000000000
  0.0816666666666667  0.7500000000000001  0.2500000000000000
  0.2483333333333333  0.5000000000000000  0.2500000000000000
  0.2483333333333333  0.7500000000000001  0.0000000000000000
  0.0000000000000000  0.7500000000000001  0.3725000000000001
  0.1666666666666667  0.5000000000000000  0.3725000000000001
  0.1666666666666667  0.7500000000000001  0.1225000000000000
  0.0000000000000000  0.6275000000000001  0.2500000000000000
  0.1666666666666667  0.8775000000000002  0.2500000000000000
  0.1666666666666667  0.6275000000000001  0.0000000000000000
  0.2516666666666666  0.7500000000000001  0.2500000000000000
  0.0850000000000000  0.5000000000000000  0.2500000000000000
  0.0850000000000000  0.7500000000000001  0.0000000000000000
  0.0000000000000000  0.5000000000000000  0.8775000000000002
  0.0000000000000000  0.6225000000000001  0.5000000000000000
  0.0816666666666667  0.5000000000000000  0.5000000000000000
  0.0000000000000000  0.5000000000000000  0.6225000000000001
  0.0000000000000000  0.8775000000000002  0.5000000000000000
  0.2516666666666666  0.5000000000000000  0.5000000000000000
  0.0000000000000000  0.7500000000000001  0.6275000000000001
  0.1666666666666667  0.5000000000000000  0.6275000000000001
  0.1666666666666667  0.7500000000000001  0.8775000000000002
  0.0000000000000000  0.8725000000000001  0.7500000000000001
  0.1666666666666667  0.6225000000000001  0.7500000000000001
  0.1666666666666667  0.8725000000000001  0.5000000000000000
  0.0816666666666667  0.7500000000000001  0.7500000000000001
  0.2483333333333333  0.5000000000000000  0.7500000000000001
  0.2483333333333333  0.7500000000000001  0.5000000000000000
  0.0000000000000000  0.7500000000000001  0.8725000000000001
  0.1666666666666667  0.5000000000000000  0.8725000000000001
  0.1666666666666667  0.7500000000000001  0.6225000000000001
  0.0000000000000000  0.6275000000000001  0.7500000000000001
  0.1666666666666667  0.8775000000000002  0.7500000000000001
  0.1666666666666667  0.6275000000000001  0.5000000000000000
  0.2516666666666666  0.7500000000000001  0.7500000000000001
  0.0850000000000000  0.5000000000000000  0.7500000000000001
  0.0850000000000000  0.7500000000000001  0.5000000000000000
  0.3333333333333333  0.0000000000000000  0.3775000000000000
  0.3333333333333333  0.1225000000000000  0.0000000000000000
  0.4150000000000000  0.0000000000000000  0.0000000000000000
  0.3333333333333333  0.0000000000000000  0.1225000000000000
  0.3333333333333333  0.3775000000000000  0.0000000000000000
  0.5850000000000000  0.0000000000000000  0.0000000000000000
  0.3333333333333333  0.2500000000000000  0.1275000000000000
  0.5000000000000000  0.0000000000000000  0.1275000000000000
  0.5000000000000000  0.2500000000000000  0.3775000000000000
  0.3333333333333333  0.3725000000000001  0.2500000000000000
  0.5000000000000000  0.1225000000000000  0.2500000000000000
  0.5000000000000000  0.3725000000000001  0.0000000000000000
  0.4150000000000000  0.2500000000000000  0.2500000000000000
  0.5816666666666667  0.0000000000000000  0.2500000000000000
  0.5816666666666667  0.2500000000000000  0.0000000000000000
  0.3333333333333333  0.2500000000000000  0.3725000000000001
  0.5000000000000000  0.0000000000000000  0.3725000000000001
  0.5000000000000000  0.2500000000000000  0.1225000000000000
  0.3333333333333333  0.1275000000000000  0.2500000000000000
  0.5000000000000000  0.3775000000000000  0.2500000000000000
  0.5000000000000000  0.1275000000000000  0.0000000000000000
  0.5850000000000000  0.2500000000000000  0.2500000000000000
  0.4183333333333333  0.0000000000000000  0.2500000000000000
  0.4183333333333333  0.2500000000000000  0.0000000000000000
  0.3333333333333333  0.0000000000000000  0.8775000000000002
  0.3333333333333333  0.1225000000000000  0.5000000000000000
  0.4150000000000000  0.0000000000000000  0.5000000000000000
  0.3333333333333333  0.0000000000000000  0.6225000000000001
  0.3333333333333333  0.3775000000000000  0.5000000000000000
  0.5850000000000000  0.0000000000000000  0.5000000000000000
  0.3333333333333333  0.2500000000000000  0.6275000000000001
  0.5000000000000000  0.0000000000000000  0.6275000000000001
  0.5000000000000000  0.2500000000000000  0.8775000000000002
  0.3333333333333333  0.3725000000000001  0.7500000000000001
  0.5000000000000000  0.1225000000000000  0.7500000000000001
  0.5000000000000000  0.3725000000000001  0.5000000000000000
  0.4150000000000000  0.2500000000000000  0.7500000000000001
  0.5816666666666667  0.0000000000000000  0.7500000000000001
  0.5816666666666667  0.2500000000000000  0.5000000000000000
  0.3333333333333333  0.2500000000000000  0.8725000000000001
  0.5000000000000000  0.0000000000000000  0.8725000000000001
  0.5000000000000000  0.2500000000000000  0.6225000000000001
  0.3333333333333333  0.1275000000000000  0.7500000000000001
  0.5000000000000000  0.3775000000000000  0.7500000000000001
  0.5000000000000000  0.1275000000000000  0.5000000000000000
  0.5850000000000000  0.2500000000000000  0.7500000000000001
  0.4183333333333333  0.0000000000000000  0.7500000000000001
  0.4183333333333333  0.2500000000000000  0.5000000000000000
  0.3333333333333333  0.5000000000000000  0.3775000000000000
  0.3333333333333333  0.6225000000000001  0.0000000000000000
  0.4150000000000000  0.5000000000000000  0.0000000000000000
  0.3333333333333333  0.5000000000000000  0.1225000000000000
  0.3333333333333333  0.8775000000000002  0.0000000000000000
  0.5850000000000000  0.5000000000000000  0.0000000000000000
  0.3333333333333333  0.7500000000000001  0.1275000000000000
  0.5000000000000000  0.5000000000000000  0.1275000000000000
  0.5000000000000000  0.7500000000000001  0.3775000000000000
  0.3333333333333333  0.8725000000000001  0.2500000000000000
  0.5000000000000000  0.6225000000000001  0.2500000000000000
  0.5000000000000000  0.8725000000000001  0.0000000000000000
  0.4150000000000000  0.7500000000000001  0.2500000000000000
  0.5816666666666667  0.5000000000000000  0.2500000000000000
  0.5816666666666667  0.7500000000000001  0.0000000000000000
  0.3333333333333333  0.7500000000000001  0.3725000000000001
  0.5000000000000000  0.5000000000000000  0.3725000000000001
  0.5000000000000000  0.7500000000000001  0.1225000000000000
  0.3333333333333333  0.6275000000000001  0.2500000000000000
  0.5000000000000000  0.8775000000000002  0.2500000000000000
  0.5000000000000000  0.6275000000000001  0.0000000000000000
  0.5850000000000000  0.7500000000000001  0.2500000000000000
  0.4183333333333333  0.5000000000000000  0.2500000000000000
  0.4183333333333333  0.7500000000000001  0.0000000000000000
  0.3333333333333333  0.5000000000000000  0.8775000000000002
  0.3333333333333333  0.6225000000000001  0.5000000000000000
  0.4150000000000000  0.5000000000000000  0.5000000000000000
  0.3333333333333333  0.5000000000000000  0.6225000000000001
  0.3333333333333333  0.8775000000000002  0.5000000000000000
  0.5850000000000000  0.5000000000000000  0.5000000000000000
  0.3333333333333333  0.7500000000000001  0.6275000000000001
  0.5000000000000000  0.5000000000000000  0.6275000000000001
  0.5000000000000000  0.7500000000000001  0.8775000000000002
  0.3333333333333333  0.8725000000000001  0.7500000000000001
  0.5000000000000000  0.6225000000000001  0.7500000000000001
  0.5000000000000000  0.8725000000000001  0.5000000000000000
  0.4150000000000000  0.7500000000000001  0.7500000000000001
  0.5816666666666667  0.5000000000000000  0.7500000000000001
  0.5816666666666667  0.7500000000000001  0.5000000000000000
  0.3333333333333333  0.7500000000000001  0.8725000000000001
  0.5000000000000000  0.5000000000000000  0.8725000000000001
  0.5000000000000000  0.7500000000000001  0.6225000000000001
  0.3333333333333333  0.6275000000000001  0.7500000000000001
  0.5000000000000000  0.8775000000000002  0.7500000000000001
  0.5000000000000000  0.6275000000000001  0.5000000000000000
  0.5850000000000000  0.7500000000000001  0.7500000000000001
  0.4183333333333333  0.5000000000000000  0.7500000000000001
  0.4183333333333333  0.7500000000000001  0.5000000000000000
  0.6666666666666666  0.0000000000000000  0.3775000000000000
  0.6666666666666666  0.1225000000000000  0.0000000000000000
  0.7483333333333332  0.0000000000000000  0.0000000000000000
  0.6666666666666666  0.0000000000000000  0.1225000000000000
  0.6666666666666666  0.3775000000000000  0.0000000000000000
  0.9183333333333332  0.0000000000000000  0.0000000000000000
  0.6666666666666666  0.2500000000000000  0.1275000000000000
  0.8333333333333331  0.0000000000000000  0.1275000000000000
  0.8333333333333331  0.2500000000000000  0.3775000000000000
  0.6666666666666666  0.3725000000000001  0.2500000000000000
  0.8333333333333331  0.1225000000000000  0.2500000000000000
  0.8333333333333331  0.3725000000000001  0.0000000000000000
  0.7483333333333332  0.2500000000000000  0.2500000000000000
  0.9149999999999999  0.0000000000000000  0.2500000000000000
  0.9149999999999999  0.2500000000000000  0.0000000000000000
  0.6666666666666666  0.2500000000000000  0.3725000000000001
  0.8333333333333331  0.0000000000000000  0.3725000000000001
  0.8333333333333331  0.2500000000000000  0.1225000000000000
  0.6666666666666666  0.1275000000000000  0.2500000000000000
  0.8333333333333331  0.3775000000000000  0.2500000000000000
  0.8333333333333331  0.1275000000000000  0.0000000000000000
  0.9183333333333332  0.2500000000000000  0.2500000000000000
  0.7516666666666666  0.0000000000000000  0.2500000000000000
  0.7516666666666666  0.2500000000000000  0.0000000000000000
  0.6666666666666666  0.0000000000000000  0.8775000000000002
  0.6666666666666666  0.1225000000000000  0.5000000000000000
  0.7483333333333332  0.0000000000000000  0.5000000000000000
  0.6666666666666666  0.0000000000000000  0.6225000000000001
  0.6666666666666666  0.3775000000000000  0.5000000000000000
  0.9183333333333332  0.0000000000000000  0.5000000000000000
  0.6666666666666666  0.2500000000000000  0.6275000000000001
  0.8333333333333331  0.0000000000000000  0.6275000000000001
  0.8333333333333331  0.2500000000000000  0.8775000000000002
  0.6666666666666666  0.3725000000000001  0.7500000000000001
  0.8333333333333331  0.1225000000000000  0.7500000000000001
  0.8333333333333331  0.3725000000000001  0.5000000000000000
  0.7483333333333332  0.2500000000000000  0.7500000000000001
  0.9149999999999999  0.0000000000000000  0.7500000000000001
  0.9149999999999999  0.2500000000000000  0.5000000000000000
  0.6666666666666666  0.2500000000000000  0.8725000000000001
  0.8333333333333331  0.0000000000000000  0.8725000000000001
  0.8333333333333331  0.2500000000000000  0.6225000000000001
  0.6666666666666666  0.1275000000000000  0.7500000000000001
  0.8333333333333331  0.3775000000000000  0.7500000000000001
  0.8333333333333331  0.1275000000000000  0.5000000000000000
  0.9183333333333332  0.2500000000000000  0.7500000000000001
  0.7516666666666666  0.0000000000000000  0.7500000000000001
  0.7516666666666666  0.2500000000000000  0.5000000000000000
  0.6666666666666666  0.5000000000000000  0.3775000000000000
  0.6666666666666666  0.6225000000000001  0.0000000000000000
  0.7483333333333332  0.5000000000000000  0.0000000000000000
  0.6666666666666666  0.5000000000000000  0.1225000000000000
  0.6666666666666666  0.8775000000000002  0.0000000000000000
  0.9183333333333332  0.5000000000000000  0.0000000000000000
  0.6666666666666666  0.7500000000000001  0.1275000000000000
  0.8333333333333331  0.5000000000000000  0.1275000000000000
  0.8333333333333331  0.7500000000000001  0.3775000000000000
  0.6666666666666666  0.8725000000000001  0.2500000000000000
  0.8333333333333331  0.6225000000000001  0.2500000000000000
  0.8333333333333331  0.8725000000000001  0.0000000000000000
  0.7483333333333332  0.7500000000000001  0.2500000000000000
  0.9149999999999999  0.5000000000000000  0.2500000000000000
  0.9149999999999999  0.7500000000000001  0.0000000000000000
  0.6666666666666666  0.7500000000000001  0.3725000000000001
  0.8333333333333331  0.5000000000000000  0.3725000000000001
  0.8333333333333331  0.7500000000000001  0.1225000000000000
  0.6666666666666666  0.6275000000000001  0.2500000000000000
  0.8333333333333331  0.8775000000000002  0.2500000000000000
  0.8333333333333331  0.6275000000000001  0.0000000000000000
  0.9183333333333332  0.7500000000000001  0.2500000000000000
  0.7516666666666666  0.5000000000000000  0.2500000000000000
  0.7516666666666666  0.7500000000000001  0.0000000000000000
  0.6666666666666666  0.5000000000000000  0.8775000000000002
  0.6666666666666666  0.6225000000000001  0.5000000000000000
  0.7483333333333332  0.5000000000000000  0.5000000000000000
  0.6666666666666666  0.5000000000000000  0.6225000000000001
  0.6666666666666666  0.8775000000000002  0.5000000000000000
  0.9183333333333332  0.5000000000000000  0.5000000000000000
  0.6666666666666666  0.7500000000000001  0.6275000000000001
  0.8333333333333331  0.5000000000000000  0.6275000000000001
  0.8333333333333331  0.7500000000000001  0.8775000000000002
  0.6666666666666666  0.8725000000000001  0.7500000000000001
  0.8333333333333331  0.6225000000000001  0.7500000000000001
  0.8333333333333331  0.8725000000000001  0.5000000000000000
  0.7483333333333332  0.7500000000000001  0.7500000000000001
  0.9149999999999999  0.5000000000000000  0.7500000000000001
  0.9149999999999999  0.7500000000000001  0.5000000000000000
  0.6666666666666666  0.7500000000000001  0.8725000000000001
  0.8333333333333331  0.5000000000000000  0.8725000000000001
  0.8333333333333331  0.7500000000000001  0.6225000000000001
  0.6666666666666666  0.6275000000000001  0.7500000000000001
  0.8333333333333331  0.8775000000000002  0.7500000000000001
  0.8333333333333331  0.6275000000000001  0.5000000000000000
  0.9183333333333332  0.7500000000000001  0.7500000000000001
  0.7516666666666666  0.5000000000000000  0.7500000000000001
  0.7516666666666666  0.7500000000000001  0.5000000000000000
  0.0833333333333333  0.1250000000000000  0.3750000000000001
  0.0833333333333333  0.3750000000000001  0.1250000000000000
  0.2500000000000000  0.1250000000000000  0.1250000000000000
  0.2500000000000000  0.3750000000000001  0.3750000000000001
  0.2500000000000000  0.3750000000000001  0.1250000000000000
  0.2500000000000000  0.1250000000000000  0.3750000000000001
  0.0833333333333333  0.3750000000000001  0.3750000000000001
  0.0833333333333333  0.1250000000000000  0.1250000000000000
  0.0833333333333333  0.1250000000000000  0.8750000000000001
  0.0833333333333333  0.3750000000000001  0.6250000000000000
  0.2500000000000000  0.1250000000000000  0.6250000000000000
  0.2500000000000000  0.3750000000000001  0.8750000000000001
  0.2500000000000000  0.3750000000000001  0.6250000000000000
  0.2500000000000000  0.1250000000000000  0.8750000000000001
  0.0833333333333333  0.3750000000000001  0.8750000000000001
  0.0833333333333333  0.1250000000000000  0.6250000000000000
  0.0833333333333333  0.6250000000000000  0.3750000000000001
  0.0833333333333333  0.8750000000000001  0.1250000000000000
  0.2500000000000000  0.6250000000000000  0.1250000000000000
  0.2500000000000000  0.8750000000000001  0.3750000000000001
  0.2500000000000000  0.8750000000000001  0.1250000000000000
  0.2500000000000000  0.6250000000000000  0.3750000000000001
  0.0833333333333333  0.8750000000000001  0.3750000000000001
  0.0833333333333333  0.6250000000000000  0.1250000000000000
  0.0833333333333333  0.6250000000000000  0.8750000000000001
  0.0833333333333333  0.8750000000000001  0.6250000000000000
  0.2500000000000000  0.6250000000000000  0.6250000000000000
  0.2500000000000000  0.8750000000000001  0.8750000000000001
  0.2500000000000000  0.8750000000000001  0.6250000000000000
  0.2500000000000000  0.6250000000000000  0.8750000000000001
  0.0833333333333333  0.8750000000000001  0.8750000000000001
  0.0833333333333333  0.6250000000000000  0.6250000000000000
  0.4166666666666666  0.1250000000000000  0.3750000000000001
  0.4166666666666666  0.3750000000000001  0.1250000000000000
  0.5833333333333333  0.1250000000000000  0.1250000000000000
  0.5833333333333333  0.3750000000000001  0.3750000000000001
  0.5833333333333333  0.3750000000000001  0.1250000000000000
  0.5833333333333333  0.1250000000000000  0.3750000000000001
  0.4166666666666666  0.3750000000000001  0.3750000000000001
  0.4166666666666666  0.1250000000000000  0.1250000000000000
  0.4166666666666666  0.1250000000000000  0.8750000000000001
  0.4166666666666666  0.3750000000000001  0.6250000000000000
  0.5833333333333333  0.1250000000000000  0.6250000000000000
  0.5833333333333333  0.3750000000000001  0.8750000000000001
  0.5833333333333333  0.3750000000000001  0.6250000000000000
  0.5833333333333333  0.1250000000000000  0.8750000000000001
  0.4166666666666666  0.3750000000000001  0.8750000000000001
  0.4166666666666666  0.1250000000000000  0.6250000000000000
  0.4166666666666666  0.6250000000000000  0.3750000000000001
  0.4166666666666666  0.8750000000000001  0.1250000000000000
  0.5833333333333333  0.6250000000000000  0.1250000000000000
  0.5833333333333333  0.8750000000000001  0.3750000000000001
  0.5833333333333333  0.8750000000000001  0.1250000000000000
  0.5833333333333333  0.6250000000000000  0.3750000000000001
  0.4166666666666666  0.8750000000000001  0.3750000000000001
  0.4166666666666666  0.6250000000000000  0.1250000000000000
  0.4166666666666666  0.6250000000000000  0.8750000000000001
  0.4166666666666666  0.8750000000000001  0.6250000000000000
  0.5833333333333333  0.6250000000000000  0.6250000000000000
  0.5833333333333333  0.8750000000000001  0.8750000000000001
  0.5833333333333333  0.8750000000000001  0.6250000000000000
  0.5833333333333333  0.6250000000000000  0.8750000000000001
  0.4166666666666666  0.8750000000000001  0.8750000000000001
  0.4166666666666666  0.6250000000000000  0.6250000000000000
  0.7499999999999999  0.1250000000000000  0.3750000000000001
  0.7499999999999999  0.3750000000000001  0.1250000000000000
  0.9166666666666666  0.1250000000000000  0.1250000000000000
  0.9166666666666666  0.3750000000000001  0.3750000000000001
  0.9166666666666666  0.3750000000000001  0.1250000000000000
  0.9166666666666666  0.1250000000000000  0.3750000000000001
  0.7499999999999999  0.3750000000000001  0.3750000000000001
  0.7499999999999999  0.1250000000000000  0.1250000000000000
  0.7499999999999999  0.1250000000000000  0.8750000000000001
  0.7499999999999999  0.3750000000000001  0.6250000000000000
  0.9166666666666666  0.1250000000000000  0.6250000000000000
  0.9166666666666666  0.3750000000000001  0.8750000000000001
  0.9166666666666666  0.3750000000000001  0.6250000000000000
  0.9166666666666666  0.1250000000000000  0.8750000000000001
  0.7499999999999999  0.3750000000000001  0.8750000000000001
  0.7499999999999999  0.1250000000000000  0.6250000000000000
  0.7499999999999999  0.6250000000000000  0.3750000000000001
  0.7499999999999999  0.8750000000000001  0.1250000000000000
  0.9166666666666666  0.6250000000000000  0.1250000000000000
  0.9166666666666666  0.8750000000000001  0.3750000000000001
  0.9166666666666666  0.8750000000000001  0.1250000000000000
  0.9166666666666666  0.6250000000000000  0.3750000000000001
  0.7499999999999999  0.8750000000000001  0.3750000000000001
  0.7499999999999999  0.6250000000000000  0.1250000000000000
  0.7499999999999999  0.6250000000000000  0.8750000000000001
  0.7499999999999999  0.8750000000000001  0.6250000000000000
  0.9166666666666666  0.6250000000000000  0.6250000000000000
  0.9166666666666666  0.8750000000000001  0.8750000000000001
  0.9166666666666666  0.8750000000000001  0.6250000000000000
  0.9166666666666666  0.6250000000000000  0.8750000000000001
  0.7499999999999999  0.8750000000000001  0.8750000000000001
  0.7499999999999999  0.6250000000000000  0.6250000000000000
  0.0000000000000000  0.0000000000000000  0.0000000000000000
  0.0000000000000000  0.2500000000000000  0.2500000000000000
  0.1666666666666667  0.0000000000000000  0.2500000000000000
  0.1666666666666667  0.2500000000000000  0.0000000000000000
  0.0000000000000000  0.0000000000000000  0.5000000000000000
  0.0000000000000000  0.2500000000000000  0.7500000000000001
  0.1666666666666667  0.0000000000000000  0.7500000000000001
  0.1666666666666667  0.2500000000000000  0.5000000000000000
  0.0000000000000000  0.5000000000000000  0.0000000000000000
  0.0000000000000000  0.7500000000000001  0.2500000000000000
  0.1666666666666667  0.5000000000000000  0.2500000000000000
  0.1666666666666667  0.7500000000000001  0.0000000000000000
  0.0000000000000000  0.5000000000000000  0.5000000000000000
  0.0000000000000000  0.7500000000000001  0.7500000000000001
  0.1666666666666667  0.5000000000000000  0.7500000000000001
  0.1666666666666667  0.7500000000000001  0.5000000000000000
  0.3333333333333333  0.0000000000000000  0.0000000000000000
  0.3333333333333333  0.2500000000000000  0.2500000000000000
  0.5000000000000000  0.0000000000000000  0.2500000000000000
  0.5000000000000000  0.2500000000000000  0.0000000000000000
  0.3333333333333333  0.0000000000000000  0.5000000000000000
  0.3333333333333333  0.2500000000000000  0.7500000000000001
  0.5000000000000000  0.0000000000000000  0.7500000000000001
  0.5000000000000000  0.2500000000000000  0.5000000000000000
  0.3333333333333333  0.5000000000000000  0.0000000000000000
  0.3333333333333333  0.7500000000000001  0.2500000000000000
  0.5000000000000000  0.5000000000000000  0.2500000000000000
  0.5000000000000000  0.7500000000000001  0.0000000000000000
  0.3333333333333333  0.5000000000000000  0.5000000000000000
  0.3333333333333333  0.7500000000000001  0.7500000000000001
  0.5000000000000000  0.5000000000000000  0.7500000000000001
  0.5000000000000000  0.7500000000000001  0.5000000000000000
  0.6666666666666666  0.0000000000000000  0.0000000000000000
  0.6666666666666666  0.2500000000000000  0.2500000000000000
  0.8333333333333331  0.0000000000000000  0.2500000000000000
  0.8333333333333331  0.2500000000000000  0.0000000000000000
  0.6666666666666666  0.0000000000000000  0.5000000000000000
  0.6666666666666666  0.2500000000000000  0.7500000000000001
  0.8333333333333331  0.0000000000000000  0.7500000000000001
  0.8333333333333331  0.2500000000000000  0.5000000000000000
  0.6666666666666666  0.5000000000000000  0.0000000000000000
  0.6666666666666666  0.7500000000000001  0.2500000000000000
  0.8333333333333331  0.5000000000000000  0.2500000000000000
  0.8333333333333331  0.7500000000000001  0.0000000000000000
  0.6666666666666666  0.5000000000000000  0.5000000000000000
  0.6666666666666666  0.7500000000000001  0.7500000000000001
  0.8333333333333331  0.5000000000000000  0.7500000000000001
  0.8333333333333331  0.7500000000000001  0.5000000000000000
