C  H  I  N  Pb
 1.0000000000000000
     9.2042300000000008    0.0000000000000000    0.0000000000000000
    -4.6020977493847486    7.7111254370233029    0.0000000000000000
    -0.5462567215212156   -0.7721742563473478   29.5944587059288402
 C   H   I   N   Pb 
   8  40  24  16   8
Cartesian
 -0.5481666190857406  0.7602949219984101  3.6666942447471711
 -0.3501855605843864  0.2308867780604751 14.3938568808026108
  3.7522738946316285  2.6962677160434247 25.4214328671819310
  8.4072475928757751 -0.0974349945453910 22.1043379631279002
 -1.0711189229670821  5.2943385921778852  7.4755010802002131
 -0.6911171242543976  5.5010041088516948  0.0699317059221099
  3.9110201814091399  2.7922241035372233 11.3021533742529297
 -0.4621183166994892  5.1978407407287621 18.5250953438567478
  2.9642580943813046  6.7234476393865030  3.5635279616983038
  7.1761048108064074  0.1061092283456351  4.8711887140784746
  0.9241468467004593  1.3578757861763988  2.4343217953148826
 -4.4042375945984027  7.5399843483130873  1.9878006023598285
 -0.4402193696471767  1.6671419267726197  4.2644431216895224
  2.7881987689850498  6.5141547418900929 14.2418005519715472
  4.4269762804528865  5.9393291666961892 14.5136848441029152
 -0.5982960927354346  2.2231658252452351 14.2782313306385458
  7.1200990829929456  1.2850329674865182 14.1395221026838573
  0.7270000268823600  0.3514778354116910 14.5269727560618787
  1.8610491738645809  2.4490485545327703 26.1656151258012208
  1.9862637210164293  3.1676801847413443 24.5684909728183563
  5.4723401664090554  2.1974502888721026 26.3497222534108033
  4.0106761655892091  1.8090943571215365 27.2455169239805635
  4.3005418841642795  3.0755187294659803 24.5580737233538713
  1.0651611578072744  0.6997665209721213 22.0850423760516321
 -0.2317009381160294  1.8679360007984298 21.9909319973667792
  6.6567533069467810  0.9641760075626861 22.0955780033509441
  1.9091677323072935  6.9270216207828650 22.1699784725376468
  4.2045636938622888  6.5991878832788746 22.1662495707406997
 -0.8885275363202103  6.8121963038131161  6.1059879091246501
 -2.4773595617734525  6.1067474594710971  6.2887928805511724
  0.3540049430174653  4.5771764739530107  8.6920996831422421
  0.8765489000701120  5.9036717514133263  7.6681906008345155
 -1.8009561057586700  4.6002319033724888  7.8986130563188777
 -2.9404040243250229  5.1719752154682928 28.6730648285784504
 -1.4543990725157525  5.5967528061491985 27.8286165438634754
  1.0738990101597969  5.1070879354218404  0.9802276612577751
  0.6646632307518746  5.0690180458873408 28.9889264863468306
 -1.2547602013460581  5.0965554144311840  0.9128114843256692
  5.0262297140066758  3.8754832966493726 12.6051677966162696
  4.8351013457341452  4.6098490454425960 11.0416037598059322
  3.5188350711839260  3.2950340308467476  9.3510794951471592
  2.8477822013580028  1.7735396613879217  9.9278459008670072
  3.7395891150638318  2.0113410626722432 12.0469275220463352
 -0.2136359584832316  5.9945716287994548 16.6427397978661418
  1.2414812380531628  5.5989550754582629 17.5336809772081317
 -2.3848161413466022  5.4651637049467361 17.8633336527334734
 -2.2058305600896442  4.8222392247827646 19.4793982592881285
  0.1092532683243946  4.8437234056538685 19.3874482760888078
  3.9788160039645413  0.3111417947405796  3.2616348884391235
  3.5559790504264135  0.2575707985390365 22.3773764391487973
  4.5341518485114181  0.2595552049411954 14.5011959825290138
  6.1996609780985708  4.2087868296846596  3.6806036403389588
  1.7703114482045701  4.1174051910074825  3.3630846928830476
  5.9434189013111016  1.4564850956266764 18.3986974107237238
  1.5693203669603495  1.4565332491361727 18.1311635040221297
  1.6497979545263153  1.1547826738643210 28.7592438923301188
  1.3243424931129861  1.6652384395311439  6.9833452319206168
  6.9323593111007398  2.0859887043186101  0.0506065243871383
  6.0260349712025212  0.9563011288909974  7.1003617216438588
 -2.7738988050196198  4.4337936791417354 14.8987679407844613
 -2.9551000568172121  3.8272407823623973 21.8094587765820229
  1.5818313818541334  3.7508499539202753 14.2592316881493399
  1.4509547996012051  4.2842236930924891 22.1526361197359734
  4.2192235541163763  5.1457463054248498  7.5522987005420985
  3.7817125302010575  5.0774220920873194 29.5564002320330168
  3.7256663628538993  5.3364720718217580 18.3761168387311002
 -2.8573107324117943  7.1736028825488640 11.0493871024455927
 -3.8454609430977036  6.0523850096537970 25.3267010048642547
 -1.1049791902120314  3.0265701140122059 10.5849908564321566
 -1.2490926566726928  2.3232220497920464 25.4408172376343131
  1.8977275982358841  6.5140748488053317 10.9877418449611426
  0.8440856814701690  6.2479543210283879 26.3439513339631439
  3.1455268763133972  7.6047309457108687  4.0475453338337699
  0.2465270791905212  0.6251976018000402  2.6334333134883718
  3.7744436926438194  6.7218907480433954 14.3970234878841445
 -1.0674343277857168  1.3157156380089516 14.2441385142093182
  2.4429906911309023  2.7693109275039549 25.3902699021645901
  4.4515543499132484  2.2064668599343209 26.4155403295727886
  0.0590607868578797  0.8906332059970178 22.0167383653583499
  7.1050863370888591  0.0460043541981282 22.1236631446628706
 -1.4911102698983958  6.1147240084665881  6.5422398249087479
  0.1518980997202561  5.2377360767812080  7.9419689383230629
 -1.9176491253414656  5.1890394746588102 28.6429376696158187
  0.6190022345948950  5.4922151604235054  0.1505470114370600
  4.6289614953664389  3.8284706894116982 11.6646854934005582
  3.3860434586774706  2.6208492062433990 10.1133143735770616
  0.2186510820675713  5.6072826005532272 17.4828672916100523
 -1.7693733323028833  5.1838345099035168 18.6253909644111388
  8.1949055833117743 -0.1237232876430318 27.4861198732597636
  4.2697914804701895  2.9414261819030183  1.4714068924000760
 -0.5510612853735752  5.4453911496337488 12.5670501338030345
 -1.1088471872201506  5.2295581586902786 24.0486347111900116
  8.5742528431652421  0.2962360632783847  9.0470852153198571
  3.8779828081490857  2.7665514879172672 16.4168157001050830
  3.6656485331605171  2.6617143676821637 20.2356254626007299
  3.9538238307319209  2.7477179048172649  5.3883518799645822
