C  H  I  N  Pb
 1.0000000000000000
     8.8559999999999999    0.0000000000000000    0.0000000000000000
     0.0000000000000000    8.5760000000000005    0.0000000000000000
     0.0000000000000000    0.0000000000000000   12.4719999999999995
 C   H   I   N   Pb 
   4  20  12   8   4
Cartesian
  3.8645320452235659  4.6192509523932106  3.3497171640963050
  4.5738976452235640  4.5319472723932090  9.5857171640963053
  0.1458976452235650  0.3312509523932103  9.5857171640963053
  8.2925320452235667  8.8199472723932093  3.3497171640963050
  4.1675320452235649  4.0152509523932096  1.4027171640963054
  5.1585320452235646  3.0282509523932095  3.5227171640963051
  4.6675320452235649  3.8082509523932107  5.0157171640963050
  3.1015320452235660  5.3862509523932101  1.6397171640963055
  3.3215320452235648  5.3672509523932099  3.9517171640963054
  4.8768976452235631  3.9279472723932081  7.6387171640963043
  5.8678976452235627  2.9409472723932080  9.7587171640963035
  5.3768976452235631  3.7209472723932091 11.2517171640963056
  3.8108976452235641  5.2989472723932085  7.8757171640963044
  4.0308976452235630  5.2799472723932084 10.1877171640963056
  0.4488976452235640 -0.2727490476067906  7.6387171640963043
  1.4398976452235637 -1.2597490476067907  9.7587171640963035
  0.9488976452235640 -0.4797490476067896 11.2517171640963056
 -0.6171023547764349  1.0982509523932098  7.8757171640963044
 -0.3971023547764361  1.0792509523932097 10.1877171640963056
  8.5955320452235657  8.2159472723932083  1.4027171640963054
  9.5865320452235654  7.2289472723932082  3.5227171640963051
  9.0955320452235657  8.0089472723932094  5.0157171640963050
  7.5295320452235668  9.5869472723932088  1.6397171640963055
  7.7495320452235656  9.5679472723932086  3.9517171640963054
  0.0100072800000000  4.8198835200000003  3.1179999999999999
  8.8459927199999999  3.7561164800000006  9.3539999999999992
  4.4179927200000000  0.5318835199999997  9.3539999999999992
  4.4380072799999999  8.0441164800000013  3.1179999999999999
  2.7044452799999998  5.9801305600000001 12.0258765600000004
  6.1515547200000000  2.5958694400000004  0.4461234400000000
  1.7235547200000001  1.6921305599999990  0.4461234400000000
  7.1324452799999998  6.8838694400000007 12.0258765600000004
  6.1515547200000000  2.5958694400000004  5.7898765599999997
  2.7044452799999998  5.9801305600000001  6.6821234399999989
  7.1324452799999998  6.8838694400000007  6.6821234399999989
  1.7235547200000001  1.6921305599999990  5.7898765599999997
  4.6285320452235652  3.7712509523932098  3.9877171640963049
  3.6935320452235647  4.6492509523932100  2.0537171640963052
  5.3378976452235634  3.6839472723932083 10.2237171640963034
  4.4028976452235629  4.5619472723932084  8.2897171640963041
  0.9098976452235643 -0.5167490476067904 10.2237171640963034
 -0.0251023547764362  0.3612509523932097  8.2897171640963041
  9.0565320452235660  7.9719472723932086  3.9877171640963049
  8.1215320452235655  8.8499472723932087  2.0537171640963052
  0.0000000000000000  4.2880000000000003  0.0000000000000000
  4.4279999999999999  0.0000000000000000  0.0000000000000000
  0.0000000000000000  4.2880000000000003  6.2359999999999998
  4.4279999999999999  0.0000000000000000  6.2359999999999998
