C  H  I  N  Pb
 1.0000000000000000
    17.7913999999999994    0.0000000000000000    0.0000000000000000
    -8.8956999999999962   15.4078043688904618    0.0000000000000000
     0.0000000000000000    0.0000000000000000   10.9016000000000002
 C   H   I   N   Pb 
  12  60  36  24  12
Cartesian
 -3.6923412747764317  7.4922884352863885  1.1201975640963053
  4.1892489252235681  9.0762107244083285  1.1201975640963053
 -1.1232631147764316 15.1099069152658352  1.1201975640963053
  4.1892489252235663  2.7405215679205703  7.7963374040963060
 13.2593046452235654  2.8699471246192516  7.7963374040963060
  8.6121909652235686 10.6601330135302685  7.7963374040963060
 -0.8101344747764330  5.4707845020879606  5.0971012440963053
  4.4988192852235684 12.5830269987677994  5.0971012440963053
 -4.3150402747764325 13.6245945741047940  5.0971012440963053
 -0.2087851547764341  0.2875991123932096  0.3298315640963052
 -0.2096747247764323 10.5599822851324774  8.4297203640963048
  8.6878044152235656  5.4230203085443991  3.7856387640963054
 -3.3893412747764327  6.8882884352863876 -0.8268024359036943
 -2.3983412747764330  5.9012884352863875  1.2931975640963054
 -2.8893412747764327  6.6812884352863886  2.7861975640963057
 -4.4553412747764316  8.2592884352863880 -0.5898024359036942
 -4.2353412747764327  8.2402884352863879  1.7221975640963056
  4.4922489252235671  8.4722107244083276 -0.8268024359036943
  5.4832489252235668  7.4852107244083275  1.2931975640963054
  4.9922489252235671  8.2652107244083286  2.7861975640963057
  3.4262489252235682  9.8432107244083280 -0.5898024359036942
  3.6462489252235670  9.8242107244083279  1.7221975640963056
 -0.8202631147764325 14.5059069152658342 -0.8268024359036943
  0.1707368852235671 13.5189069152658341  1.2931975640963054
 -0.3202631147764325 14.2989069152658352  2.7861975640963057
 -1.8862631147764315 15.8769069152658346 -0.5898024359036942
 -1.6662631147764326 15.8579069152658345  1.7221975640963056
  4.4922489252235653  2.1365215679205694  5.8493374040963069
  5.4832489252235650  1.1495215679205693  7.9693374040963061
  4.9922489252235653  1.9295215679205704  9.4623374040963064
  3.4262489252235664  3.5075215679205698  6.0863374040963070
  3.6462489252235653  3.4885215679205697  8.3983374040963064
 13.5623046452235645  2.2659471246192506  5.8493374040963069
 14.5533046452235642  1.2789471246192505  7.9693374040963061
 14.0623046452235645  2.0589471246192517  9.4623374040963064
 12.4963046452235655  3.6369471246192511  6.0863374040963070
 12.7163046452235644  3.6179471246192509  8.3983374040963064
  8.9151909652235677 10.0561330135302676  5.8493374040963069
  9.9061909652235673  9.0691330135302675  7.9693374040963061
  9.4151909652235677  9.8491330135302686  9.4623374040963064
  7.8491909652235687 11.4271330135302680  6.0863374040963070
  8.0691909652235676 11.4081330135302679  8.3983374040963064
 -0.5071344747764339  4.8667845020879597  3.1501012440963057
  0.4838655252235657  3.8797845020879596  5.2701012440963053
 -0.0071344747764339  4.6597845020879607  6.7631012440963056
 -1.5731344747764329  6.2377845020879601  3.3871012440963058
 -1.3531344747764340  6.2187845020879600  5.6991012440963056
  4.8018192852235675 11.9790269987677984  3.1501012440963057
  5.7928192852235671 10.9920269987677983  5.2701012440963053
  5.3018192852235675 11.7720269987677995  6.7631012440963056
  3.7358192852235685 13.3500269987677989  3.3871012440963058
  3.9558192852235674 13.3310269987677987  5.6991012440963056
 -4.0120402747764334 13.0205945741047930  3.1501012440963057
 -3.0210402747764338 12.0335945741047929  5.2701012440963053
 -3.5120402747764334 12.8135945741047941  6.7631012440963056
 -5.0780402747764324 14.3915945741047935  3.3871012440963058
 -4.8580402747764335 14.3725945741047934  5.6991012440963056
  0.0942148452235649 -0.3164008876067914 -1.6171684359036944
  1.0852148452235646 -1.3034008876067915  0.5028315640963053
  0.5942148452235649 -0.5234008876067904  1.9958315640963056
 -0.9717851547764340  1.0545991123932090 -1.3801684359036943
 -0.7517851547764351  1.0355991123932089  0.9318315640963055
  0.0933252752235667  9.9559822851324764  6.4827203640963056
  1.0843252752235664  8.9689822851324763  8.6027203640963066
  0.5933252752235667  9.7489822851324774 10.0957203640963051
 -0.9726747247764322 11.3269822851324768  6.7197203640963057
 -0.7526747247764334 11.3079822851324767  9.0317203640963051
  8.9908044152235647  4.8190203085443981  1.8386387640963058
  9.9818044152235643  3.8320203085443980  3.9586387640963054
  9.4908044152235647  4.6120203085443991  5.4516387640963053
  7.9248044152235657  6.1900203085443986  2.0756387640963059
  8.1448044152235646  6.1710203085443984  4.3876387640963053
  4.4267671910000024  5.3029040296410299  3.7489512239999998
 10.9855668009999992  1.1822408292249662  3.7489512239999998
 11.2747660080000021  8.9226595100244648  3.7489512239999998
  2.3659003720000009  3.7746039142907848  0.1128315600000000
 13.3395469349999996  0.1616278678296609  0.1128315600000000
 10.9816526930000027 11.4715725867700158  0.1128315600000000
  2.1052563620000013  6.3082632647111332  7.3776577999999997
  2.3799555780000037 14.0768782275057038  7.3776577999999997
 -4.4852119399999975 10.4304672455640866  7.3776577999999997
  2.0517932050000005  1.5443242318938910  3.9971806559999998
 15.4280793809999999  1.0047429228953471  3.9971806559999998
  9.2072274140000037 12.8587372141012235  3.9971806559999998
  0.3059231230000021  7.7410349929742575  0.3617150880000000
  2.0388054830000026 11.8022240685264048  0.3617150880000000
 -2.3447286059999977 11.2723496762802622  0.3617150880000000
  9.2015341660000001  2.5801909196143966  7.6311199999999992
 10.9561220340000016  6.6786668817392600  7.6311199999999992
  6.5294438000000028  6.1489465675368056  7.6311199999999992
 -2.3394801429999985  6.5127248286863084  7.8365061440000003
  4.4252549220000015 10.1253927190600557  7.8365061440000003
 -2.0857747789999967 14.1774911900345586  7.8365061440000003
 -2.0768790789999994  3.9078814220816880  0.5559816000000000
  6.5498149530000029 11.6552336148471891  0.5559816000000000
 -4.4729358739999965 15.2524937008520460  0.5559816000000000
  6.5622689330000004  1.3862401590690745  4.1990782879999999
 13.3097463400000020  4.9899715229088644  4.1990782879999999
  6.8150847270000003  9.0315926869125231  4.1990782879999999
  6.7682043880000009  3.6353173627960151  0.3703273520000000
 11.2590206189999993  4.0437782566153011  0.3703273520000000
  8.6598749930000025  7.7287087494791464  0.3703273520000000
 -2.1159312019999983  8.7676569980734289  4.0071011120000000
  2.3606519090000022  9.1915256962616052  4.0071011120000000
 -0.2447207069999973 12.8564260434458895  4.0071011120000000
 -0.2472115029999994  2.5858918072308863  7.6204364320000009
  6.7798577550000010 13.9007670235692871  7.6204364320000009
 -6.5326462519999966 14.3289499069807515  7.6204364320000009
 -2.9283412747764324  6.6442884352863878  1.7581975640963052
 -3.8633412747764329  7.5222884352863879 -0.1758024359036945
  4.9532489252235674  8.2282107244083278  1.7581975640963052
  4.0182489252235669  9.1062107244083279 -0.1758024359036945
 -0.3592631147764322 14.2619069152658344  1.7581975640963052
 -1.2942631147764327 15.1399069152658345 -0.1758024359036945
  4.9532489252235656  1.8925215679205696  8.4343374040963059
  4.0182489252235651  2.7705215679205697  6.5003374040963067
 14.0233046452235648  2.0219471246192509  8.4343374040963059
 13.0883046452235643  2.8999471246192510  6.5003374040963067
  9.3761909652235680  9.8121330135302678  8.4343374040963059
  8.4411909652235675 10.6901330135302679  6.5003374040963067
 -0.0461344747764336  4.6227845020879599  5.7351012440963052
 -0.9811344747764341  5.5007845020879600  3.8011012440963055
  5.2628192852235678 11.7350269987677986  5.7351012440963052
  4.3278192852235673 12.6130269987677988  3.8011012440963055
 -3.5510402747764331 12.7765945741047933  5.7351012440963052
 -4.4860402747764336 13.6545945741047934  3.8011012440963055
  0.5552148452235652 -0.5604008876067912  0.9678315640963051
 -0.3797851547764353  0.3175991123932089 -0.9661684359036946
  0.5543252752235670  9.7119822851324766  9.0677203640963064
 -0.3806747247764335 10.5899822851324767  7.1337203640963054
  9.4518044152235650  4.5750203085443983  4.4236387640963049
  8.5168044152235645  5.4530203085443985  2.4896387640963056
  4.4468714729999990  2.5658616615513288  2.1735610080000005
 13.3458628819999987  2.5681728322066610  2.1735610080000005
  8.8943656450000024 10.2737698751324711  2.1735610080000005
  8.8955220859999997  0.0006163121747556  5.8071733040000000
 13.3431052150000014  7.7034399503141637  5.8071733040000000
  4.4484726990000016  7.7037481064015427  5.8071733040000000
  0.0000000000000006  5.1391190691997251  9.4451462400000015
  4.4450923330000052 12.8382448342905988  9.4451462400000015
 -4.4450923329999972 12.8382448342906006  9.4451462400000015
 -0.0008895699999975 10.2723831727392678  2.1744331360000002
  8.8965895699999997  5.1354211961511895  9.4371880720000014
  0.0000000000000000  0.0000000000000000  5.8106618159999996
