C  H  I  N  Pb
 1.0000000000000000
    27.3430000000000000    0.0000000000000000    0.0000000000000000
    13.7218943654769348   23.6239711950106361    0.0000000000000000
     0.2134892802197731    0.1045977227227820   45.3033762278666430
 C   H   I   N   Pb 
 108 540 324 216 108
Cartesian
 19.3740022416003335  6.8110103237422557  7.9429956506556314
 28.5008959618087125 17.6099632903173990  4.1310019523508883
 10.4084788637732171  7.0265881567455031 34.4273946968426969
  5.0610053481904300  4.7160090274536186 11.1029967493017843
 19.1480118045140948  2.0730007045233894  3.7120000862945948
 14.5109001523403514 20.4599816515465740 11.5180209789252714
 33.0523842931850069 20.7885630428868353 23.0373557557611512
  9.8370121821717991  1.7629992468544500 15.7190030565353442
 24.7364731019858723  4.5805880964409260 41.2633751673446696
 15.0690005958357318  9.6850006548705956  4.3790016944974752
 19.3029057749770168 18.4779791163221390  4.4789998368452464
 19.0419023217405723 12.4279684457617563 23.5999783851350244
 33.2983860168822829 20.0015603233567738 30.8163984878481330
 28.7163770600841559 13.0825703797843449 30.5293562960683680
 10.9023981754202097 13.0825775091169785 41.9513748904291646
 28.9518912116091442 12.7259817492747942 12.0159956904219829
 15.0443849897449304 15.5325645437849698 34.2023728271188858
 28.8063923473329417 17.1005677603792741 38.2173845453135641
 19.6758863239785455 12.2139669382017466 11.6320042735145837
 10.8924903620525857  2.1595975005263921 26.5583794595671741
 24.8884782424547240  4.8555973393259402 30.9403938285838045
 24.0520041939308022 10.1649998338107359  4.1980011154542805
 38.4673823680643565 23.1315688326098865 34.6073850105960119
  5.8144732048645658  4.8985891157879617 23.1623930741500601
 24.0208876222783942 20.0829804863316284 12.3630195523274402
 15.0574829080574251  4.5195974873391469 23.2373701618071848
 14.5688882139922136 15.0899819623926739  8.1980083554422922
 10.4499904321023820  7.6919926891251835  0.1449997980899591
 18.7949898572930358  1.3689994096781863 15.3520004057133956
 27.9600141626023344  7.7140107854186644  0.7080011636890998
 29.2354836818841619  7.1055873670286758 34.0183958162575166
 20.2044777996286413  7.4315995249874165 34.6533679374672943
 28.7669000272337527 18.1299769931954486 15.5000065358498382
  1.0550001397919888  1.7010001444199980 15.1970175556378670
 28.4083753775445835 11.9935674056967496 23.2403601846382166
 37.2658892209679564 17.5929634533315991 15.4209974477084373
 10.2215017836968975  2.2285976909054916 37.5523762856647139
 33.1344879346394734 10.3435956214480935 26.8203688842929253
 14.8408883752851040 14.4399763885505674 18.8530000172267052
 37.6188983192769584 23.3769720341220051  7.4740150999447561
 19.8864926022748172  1.8095972783018408 26.3683770996675015
 19.9478903363532005 17.2409649366684228 15.3590224290287161
 34.0168988091740658 14.6899789110774233  8.2790107921377167
 28.1958861492904802 22.6199719317576289  7.7939928462421770
 37.9478987591885328 22.9659719550821926 18.6679810287120951
  1.5114897081455578  2.4195984290059447 26.5983823407763786
 37.4673721858276494 23.5645690068035485 45.0023760658710756
 23.6560106280488043  9.8890017366703784 15.9139887878200792
 15.1035011628385654  5.0335993757937114 30.0993819522896864
 24.5208790708089808 14.7249676660616160  7.9829985318648369
 23.8313826385797398 15.3705600587663351 34.0833608577682767
 24.6358842366798960 14.9309706326141409 19.2799843381743443
 19.7273753021739893 23.5785688513854410 33.9623555398636512
  6.1444882648371983  4.5696088358366094 42.4323744268532934
 15.1004895427634924 10.3256041375235750 26.8553883941170675
 24.4735013633420557  9.8665951016392199 37.7033724386321936
 24.0053669250661841 20.5985583865029049 42.3873745832461566
 15.6504926497105696 10.2046011684610409 38.2943549815247124
 19.4773839919529337 13.0385805164950526 41.6813758287863294
 14.8020132631027312  9.4990108277094603 15.1949789037076126
 19.4070076123150450  7.5649952181079518 19.7210127057526279
 22.9860021867003574  1.0750000187855360 15.2459905053401901
 10.2854016481541723 11.8235777115436704 31.5523971380460537
  5.6869931341835329  9.6879882298749500  3.9540016614286135
 32.9368993239980909 15.3859618745098796 19.0930173044819398
 24.2184875414735323  9.6906069064237403 27.3223755962739183
 19.1800072208065089  7.2089906736421421  0.6829982303489404
 11.1443782041879444 17.9045599185665054 38.0423776029453222
 15.0443770049729881 14.9485596422684264 45.2543760961385786
 15.0520065522179003  4.4669941492349903 11.5760093004969420
 10.2903900427141259 17.4505797383540582 26.5013878122725188
 10.4030004718721720  7.0070072498179501  7.8870006776379871
 28.8548900382601836 22.7669702579848980  0.1110000672647074
 28.3718901935785546 22.9209714319628475 19.5359937172380214
 19.9004754990779134  2.0035975040600946 37.8303578021989040
 32.9938877859148860 21.0969625155987615 11.7260087791874064
 37.4408916377321788 18.3469666174714199  3.8370011619825246
 15.7053646857210953 20.2045571911760753 30.7123819360289474
 28.4810049969402748  7.2230018786710675  8.0509988995828650
 32.5339961326595599  9.9329949762850109 15.6809935238801650
  5.6109953840365767  0.1429999944943891  0.2190001449556056
 10.1800055418116493  7.4639994497736764 19.4740186985583001
 28.5110069844842897  7.7010028575231422 19.6820064988204351
 33.8903769150994805 15.2945590740386539 34.3993972103338734
 23.7953879360335634 20.4475791412764636 31.1123654447447819
 28.2583879278045913 22.6065682725762258 34.3033540527308034
 24.0970036690332563  4.7489961023266023 11.2190186958213509
 28.1993841143631236 17.9575626339524881 26.3123821266498616
 23.6604888603582317  4.4675993080402607 23.4923828665938395
  1.8664886905348144  1.7225968907408620 37.9303876569100282
 19.6783788564391102 18.2505700489546783 38.9383877779800613
 18.7929047082828760 22.6149711750367217 19.2079972733482656
 18.9514001538214956 17.7035747940387367 26.5653561795062707
 32.9713929834451633 20.2565769341426645 41.6093751729473809
  5.7024833662668790  4.8945980749879601 30.6323761736105382
 33.0788973917879332 15.6439654838981426  0.0129999850220912
 28.8793867886109119 13.4625764957107403 41.5043755378640498
 23.6678942531049046 15.0429672771143679  1.0650008290399346
 23.7073846082843573 19.8315747882592035 23.3933949895359561
  1.1870001438567268  1.7320002375220764  4.2899986815602089
  9.9340092548796122  2.3270005422676263  4.1160020044818415
 33.3184938364939427 10.4356057030364973 38.6053626593290176
  9.7568947192924149 12.1979717291389189 11.4879848404861953
 19.7829016847131243 23.4309712505523642  7.8400210764896894
 14.7973897877151934 20.9015782335064344 41.9043771679303774
 10.3283943610778142 12.2025757250412941 22.8443633730304398
 14.5649013151800677 20.1329696202570965 22.4009792298883070
 14.8144889472617862  5.1466015143548152 41.4913779992242766
 18.4010092203559630  7.9630003396953448  9.3509792804414982
 19.5649867920721903  6.8789956790029709  9.9670145903880289
 17.8399937838987270  7.6130103427295328  6.8539930928901729
 19.0650012932413517  6.6110038797859332  6.0679795153366864
 20.2699928341800231  6.2190047812362206  7.8659799110682576
 28.9728758013115737 19.3849621258898743  3.3379980638454421
 27.1918891850076569 19.0609681554673855  3.6589996664456139
 30.6418760583931764 17.6239610877560189  4.2079995705877709
 29.9028943853497715 16.1749637986259209  4.4240015381046156
 27.7058882052201554 16.8659740606357822  4.2540006188095463
 12.1784856003788882  7.0605896565680286 35.3613691011563915
 11.2294797808799647  8.4055896213481969 35.7163663572779626
  8.4955014177474357  7.4516014680242968 33.7803718775563055
  9.0824895256489651  8.4055914177251640 35.0213672625662582
 10.6115039112289882  6.1766086614139697 33.8693930118440676
  5.1339950207492180  6.6219893794327707 11.9720061121047241
  6.6099889123765623  5.6649926312691576 11.9560140202962852
  6.7349864277287015  3.7489976865446550 11.0060022207979209
  5.3580027740721947  2.9119929788827976 10.3070164289781676
  4.0329939709861691  4.6279897227551050 10.8589927649384954
 20.4820056497144733  3.3910047014103197  4.6130162844025211
 20.8089873938381800  3.0829943703873814  2.9549987908774349
 17.5629908052605828  1.2150010447661368  4.5180015134398159
 18.3299930371454884  2.3899986629377938  5.5700048038399759
 18.8669928447803308  1.5879999270018312  2.7979999405597629
 14.6248936856612683 21.3149722546269764  9.6850010733695591
 13.0368940055674294 21.2419682375606307 10.4580125819456473
 15.9668828550098638 19.8829745886900859 12.7699797809823661
 16.4718869092596556 20.3499778120310033 11.1859925345512359
 13.8138938094631811 20.1659713320854195 12.3220199968412203
 31.1294027640789324 20.6765783127836400 23.3923983152589443
 31.8923943964618672 19.1055789785101133 23.0933960321550167
 34.9743663026213554 20.7325586213697548 22.4473698871456406
 34.1713825654607533 19.2375659913688395 22.5203536262487383
 33.0413722593507444 21.8375693869128327 23.2503722307845777
 11.1559970904962267  2.7519913842197288 16.8979781194893448
 10.9680050931019331  3.4859940154076092 15.3350116396279486
  8.8000119240452950  2.1240002736997385 13.9399847754432500
  8.3800013457448603  0.7720002698774293 14.8700177860251248
  9.7099890179866453  0.9720004840729245 16.4619784266723563
 23.2534894590542542  4.1695933003080796 42.7023780188337554
 24.4074954975419161  2.9575902615203304 42.2833761527774641
 25.0564787487187708  6.3615990332960086 40.3423847106578819
 23.6244969570831316  6.2075954859748617 41.3353758231836181
 25.6024979550088965  4.1726023925624940 40.7723590544365635
 13.8400021688781347  8.0040111467006998  4.6850033492286016
 13.0819996824510127  9.4649955002985831  4.0229987034236538
 15.8300187222208439 11.5480113852195672  4.2770011429204340
 14.2479916913710021 11.3830016802095564  3.6340012634430772
 16.0400115774463856  9.3279977557079601  4.7279962532688460
 18.8138978232352017 16.4769805610778839  4.6729979545282170
 18.7748933984441599 17.4819718428527899  6.0560194240125291
 19.8189028575474175 19.5249818887154802  2.8879996277740427
 19.5948938639136685 17.8009630035883433  2.5449987056776187
 19.5298852766235633 19.3509752839668572  5.0400006053501638
 20.8048933181777755 11.5889776962983753 22.9309834283781200
 20.3208894243120675 11.2309824840986590 24.5180060010165164
 17.8078869308687864 13.4779781291262495 22.5030024331534619
 19.3948842015701999 13.0469705658879498 21.7100121356608859
 18.2918920868947161 12.5229602530694439 24.3979973573888955
 31.6483775245089660 21.2185602069528478 31.4043910079096129
 32.5003785930529645 20.4335676412389340 32.6153955578567150
 32.8653850876547935 20.8885592287509567 28.9803885594613817
 34.2183990735684134 19.9275754697382297 29.0383768810330487
 33.9303807461300266 19.1665602509700790 31.2823890157279685
 26.9993849644482289 13.8255718113965003 31.3393806630226237
 27.2833843585545388 12.1755673537158078 31.6923845705901641
 29.2464018301642668 11.1445767347100393 30.3753701202698494
 30.3543955271709081 12.1065754768910310 29.6723976313420401
 28.9184038409238475 14.0985805631978742 30.1363948106678556
 12.3013773995756068 11.5575707312634446 42.1113773545907506
 10.7973747529935018 11.3365620275066430 42.9373756920029450
  9.2693860291773795 13.0465742765871369 43.0153745148544644
  9.4833786488821357 14.5065617337628563 42.0443781914873540
 11.5633873527756172 13.6895732576388163 41.3073783366747946
 28.4959090841857510 14.1799812254570963 13.4140125774377186
 27.2968938701686383 13.8529670944828549 12.2529776514699513
 29.2109055141730103 11.3589718004991838 10.5489817614112038
 27.9058858336459146 12.4679658172269310 10.2889856852394779
 29.9088867762071935 12.3659683204113655 12.5140157052949199
 13.9213736089038331 14.5185726813274343 32.9933616257258038
 14.0353749367698661 13.8275670677131473 34.5773941755331649
 15.2383858840238897 15.1245580925274936 36.1273585864171665
 16.0463838799169523 16.5885759096532972 35.6843821736610849
 15.3133761664674086 16.3565615936645017 33.4523754336665533
 28.7833813541087906 18.8745736113880689 39.0713984905850751
 27.8413777891117782 17.6955734110030214 39.9723920370048873
 29.5913856022060173 16.8915630496018352 36.3843646397578553
 29.6943904956813256 18.4705704245576925 37.1333653589331760
 28.4923982730914709 16.0805744604543541 38.3483566059883287
 19.4719009917899051 10.2079697352636600 11.0730059142389372
 18.5168879429462550 11.4949770910195355 10.3350139154869893
 20.5789015668339239 11.0569683582971336 13.0070070454065636
 20.8088918293857787 12.8569614187050281 13.2270002403690832
 19.3098910468122362 13.2449733413513382 11.4619807025313989
  9.2164788634308117  2.2225968234045479 25.3003953084717779
  9.0034975465491698  2.8536030930280858 26.8763638573105723
 10.9404831319956131  2.9856020370379683 28.5083726825432358
 12.4404801611352323  2.2315973984168753 27.7283844540280597
 11.1994856738328501  1.3215979413135988 25.9513595214899873
 24.2644834890527612  3.0626017321357781 30.1903964351314720
 25.7204763618522669  3.8675913627316834 29.4753732481270525
 24.2094800030110520  5.7095955729508683 32.5943747912869881
 23.3495010061454593  4.2736078719522705 32.0193843402029046
 25.6375006636063922  5.6376039342355551 30.8303972311025447
 24.7529944742858348  8.5119886087411736  3.0850013593009211
 25.5990107919173546  9.9600068018803256  2.9769981103736867
 22.4929988480168674  8.8099883018130409  4.3670008301347139
 22.4759828692006884 10.0409908562017005  5.5150065050993460
 24.6409940603271131 10.9399913833669213  4.6820133263975618
 39.7093852588721958 22.4805697477160216 33.2473776562354573
 38.0163821529761208 22.8245682423081284 32.7113934120835665
 23.5104927094519027  0.2285977853144783 36.0083919204427900
 36.5093782236803222 23.6835689052889968 34.3933718612955701
 39.2313850289235830 23.1425691296615952 35.3393969636858785
  6.8645088455375012  3.1946089813893224 23.6403889967302874
  6.5144960626231017  4.3126060738341216 24.9673701898207270
  6.2154869137096647  3.9716074814761320 21.3203577967250020
  5.5014841876667422  5.5695879870795064 21.3953801877583523
  5.3774882807760669  5.8085978075663967 23.6183715558835452
 24.1628866662718416 21.7489703832155143 11.1439963047880042
 24.7118869745457488 21.9949703008674255 12.7539876891739290
 23.2558972501507029 19.5949709530946485 10.5479850871341903
 23.0548911403204393 18.3269777646278946 11.7859904493131040
 24.3288865508640484 19.6859606606598554 13.3779963933365647
 16.7374930919776119  5.6075924345430757 23.6333669734149652
 15.4004836666603477  6.5055973207099180 22.9523666219576725
 13.3544834120215494  5.4215871309501438 22.6553576874077791
 13.1804870627807738  3.6765952396491737 22.8363899788143385
 15.4914797941125180  3.5395972567858558 23.5003562608099479
 15.0568916944001838 13.2849734246680367  7.4939938888612447
 15.6448794117946068 14.5329621942836411  6.5139912543000333
 15.3748856809310883 16.8699635162252832  7.4860204946451399
 14.2149043611402917 17.1219765442319165  8.6389914196443467
 14.0259029681331402 14.6559674579590489  9.0290081855900493
 11.3854880887261789  5.8836033464547972 45.2383763027561869
 12.4904996561783452  7.0966049990773259 44.9643760469249045
  8.7920152611304765  6.6410105866262352  0.5650010566258389
  8.5860024500845444  8.3529896803228070  0.5739983071446931
 11.0334774292625628  8.8405860094871027 45.1333762146390995
 18.7570031152806358  3.0050009892969722 16.6919836677812370
 18.9120135627924384  1.3180008407398027 17.3650106250224248
 18.7259931561384505  1.5010006838479681 13.2800051905556877
 18.7779853194525437  2.9809884710886601 14.0680121166632013
 18.8989939502407935  0.2599999840665923 15.3610157775827414
 28.7700074679819089  5.8960112174503854  0.6700006917091654
 27.0749894455841904  5.8609938978787044  0.7490007191753192
 28.9169835559315942  9.3519950621110812  0.4489999496593372
 29.8849994123715845  8.0799969119299089  0.0240000071972271
 27.0939963760281870  8.2789931047567578  0.8679990975130566
 29.2765048590780381  8.6706073893003879 32.7303755267230372
 28.1574976896597562  8.7886078338154228 34.1213703904234578
 29.2074959379048664  5.5396089949981402 35.1573679980023144
 27.9374723912181295  6.8085904292577082 35.6263938520894214
 30.0724825045108624  6.5395870875891271 33.4993550348148474
 20.6964917796218693  8.1155934910209861 32.7643983622701711
 18.9955008937157892  7.5186006816560322 33.0443732273583848
 19.7734817932962663  6.3585862733534375 36.2543892533601024
 18.4574857852490020  6.4195987828793442 35.0843842588992203
 21.2004973144225559  7.6715913157973388 35.0403946805819615
 26.8549092630870945 17.6779807331245422 15.5209819990433395
 27.3738780071029169 18.7859611883090238 14.2489991046935298
 30.2508878526508447 17.1769594290706422 16.4810058446880632
 28.6768916313502018 16.6049815961768346 16.7699960816456226
 29.5099084694081881 18.7179823939832701 14.9700023373600253
 28.9440000688230867  3.5030017795693835 14.3930185377219164
 29.1449965771234254  3.3019937914062063 16.1770201901990767
  0.3579998903614770  0.0639998910932857 16.0050032706618666
  0.8870004359732732  1.2530006349517377 17.2099824715706653
  0.8809993540256846  1.2759988418074142 14.2070028749302963
 29.2903920322476203 12.7655669399015235 24.8943864507176329
 29.3263937481274652 13.7295726151005866 23.3723742229662257
 28.5073885067318180 12.8685772741796622 21.4913780419852039
 27.7893685318535795 11.2685642563588555 21.4773792987307921
 28.1413702996830999 11.1315603541684514 23.7963685210828260
 37.2668966911995838 19.6079746532865897 15.6890122214724972
 35.6608885001828213 18.8499619669930354 15.3760111951141667
 11.6108877400326520 16.5359593920187642 15.0949943523727086
 11.9048956570391109 18.1289729855805071 15.7199997308123596
 36.6799001664634119 16.6429815741576661 15.3429850338440499
 11.7004887330956180  2.5045921454880422 39.0463910269072940
 11.2335012967526566  0.9695983932615592 38.7863949507355699
  9.4194873098364127  3.4795886834307237 36.2273884411282978
 10.7674781883863790  4.1685978828577230 37.2063944014124957
  9.5954956314315645  1.4375970790442942 37.1843769605657499
  7.0654907764153645 10.8546012989187641 28.2713907214952656
  7.8564932132563223 10.0456049594666048 27.0463874282937482
 31.9434847168227662 10.1615883169692260 25.2103774999070005
  6.1314940494451120  9.3486054460176344 25.0213718142843469
 32.3034868801214188 10.8645944323133232 27.3403610366363843
 14.2698955074201752 16.4149700953145512 18.5179815500216272
 15.5818897446364009 15.7909712555918489 17.5479909616067786
 13.4929021272064453 14.5169783975099005 20.4030097314869323
 14.4598892866216264 13.1119594566313751 20.1339982834458588
 15.5608847706731428 13.7359705793246150 18.4489845080265873
 37.6298937169665990 21.4599715558177131  7.1689874678025287
 39.1578951778660311 22.2939721564569524  6.7950080970414906
 22.3339874268509284  0.5299992691791061  8.4629878029990842
 35.9769006026937035 22.4759706858268729  8.0829830831997391
 24.4130098524878569  0.6679994178463370  7.4360055672895751
 18.3004764716989712  1.4415971134227759 27.6493753658866623
 18.1324994236876265  0.9875980443019013 25.9863790313141294
 21.7335001619953125  2.6076074585009201 26.9073966700266602
 20.4505050435588451  2.6566078534591369 28.1063958252733741
 20.1864911083945060  1.5755981638854117 25.3343728406426685
 18.9268883576824045 17.7329689525352592 17.1340087096365323
 19.6788873241725177 16.1419673355062052 17.0530062729411043
 20.1269020228404898 18.7399748287788128 13.8949985228489776
 18.9379024924491723 19.0309719383888307 15.1420192568972336
 20.5308891020076025 16.5299628454178951 14.9329894789818596
 35.7089000560528760 15.5619806956966347  7.7340111761164820
 34.1528957265963840 16.3989806040726300  7.3770205714408927
 32.1028972986113743 15.1809626332086651  7.6680041569524802
 32.2839065419274220 13.8449765292213520  8.7000150674232817
 34.5098959982168481 13.8659746403512418  8.8110083391815550
 28.4668848067468723 21.9859710016459786  9.7740222076573158
 29.8108919962110690 22.9469717284799621  9.0450002773984863
 28.2498847080980902 23.2139719405219758  5.7870079759714566
 29.6938991240378840 23.4519711937824091  6.6330032236506380
 27.2718989527569420 22.0989700705134702  7.7709787311184204
 23.9110130452483993  1.1209993779185587 19.5909920159786495
 36.8588815851903817 23.4619711539411213 20.3590201531696735
 38.2479006859679487 21.0959799141942703 17.8079870377785028
 37.0928882583820752 21.0739605862736248 19.0759832350202636
 38.5318938023324122 23.5579710553899062 17.9299890299601508
  1.2774899311209624  0.4945988940658341 27.3973979873072651
 27.6844897486512700  0.8965983847642812 25.9883723798681565
  2.6284879551312228  2.3885968616187774 28.2713907214952656
  2.6304899512210778  3.9085987612575330 27.3863892668838922
 28.5774953993573746  3.0026074839312322 25.7133808861650053
 36.4543766220197014 22.3065683025040187 43.8583752093649863
 37.2903772217415366 21.6435681637518691 45.2343760146352665
 38.2008939849792100 22.7689709325348097  1.3510010431664567
 24.2680127388529385  0.9620009436712540  1.1070015891407898
 23.4304777999485481  0.8385980593283335 44.4873763455879327
 24.1019912397619613  8.6439952970547438 14.3179961466885697
 22.8439982355885540  8.1110039042692375 15.4489949342172590
 24.7009996862078083 11.0319902731957846 14.6920208208258369
 24.2909927735455931 11.7169911485624478 16.3190009712972106
 23.3180053847556366  9.9089992585803568 16.9320009550364752
 14.1064885790628445  5.6676093963752736 31.7423541945694971
 15.1384853736284679  4.2326002572202066 31.9083910684446259
 16.4744953434529293  3.6425975086635196 30.1203574154831877
 16.0584952467418631  4.4305937051824529 28.5833950735765825
 14.5145019757105835  5.6635961964539101 29.4413957159561512
 26.1448939322238232 15.7429765905410228  7.4529943333750248
 24.6998793313914113 16.6829671835438518  7.2349944869665315
 22.9338882329837972 13.5599708783596320  8.0630042942832496
 22.6258983806983522 15.2579710566579312  7.6859895973149435
 25.1499024591789286 13.8799795512344790  8.2260058419511122
 23.6183715742846303 14.2115583610068938 35.6753668017917391
 24.0783925234288887 15.8835721678891382 36.0043599199585103
 23.3593865761057415 14.6245614295570157 32.2923824853520287
 22.8573857442540103 13.5965607302521896 33.6823806747754304
 23.8843928353224690 16.3965805754456078 33.7183968588765879
 22.7128845309705518 15.2639607869106886 18.3840194665158272
 24.0818978877581422 15.3029659502081472 17.4639985020803117
 24.8888924017917539 14.3389777068996409 21.3059966264607716
 23.3708972537291864 14.6549714281195538 20.7430115700770727
 25.7188790048900948 15.0099680369102657 18.9929874497708120
 20.4573853290080550 21.5415684933153422 34.3123694246001492
 19.4853860244967940 21.9165681294382928 32.9053824690912933
  6.6684989167185114  0.4095973772862497 35.8653691616914116
  5.8334830640397461  1.6185974562628065 35.0113552164199007
  5.6104867277773058  0.4365965407308246 33.1433611044162717
  5.3634845611403437  6.2435873481377673 43.4383766690316762
  5.2584891783562018  6.3805983284422290 41.7363741275269575
  6.8374750100156483  3.0575947509287227 41.1903778372287093
  6.1584917261203040  4.4106024220259679 40.5013542578414629
  6.2905012775275759  4.1796087720258681 43.4283782138981920
 14.1174973397200354  8.5135945218954898 27.0583928229941364
 13.7685007732680553  9.3825985569019057 25.5833601963910269
 15.9394732696271220  9.5815883513339557 28.5323834719440086
 16.4574924435323133 11.1255871178542662 28.0953871048500048
 15.1134870681808486 11.1266072046882751 26.1633793222364055
 25.4075037702035011 10.0926010605923224 39.4203703976683357
 26.3345032111953437  9.5256022864866221 38.1823650354894255
 23.2124851226511524 10.6216015100561272 39.0983539994406613
 22.3425041911049469 10.2426058979827950 37.7493553655034759
 24.6844918953750891  9.6906044035032615 36.6733548767154147
 26.1183721372637905 20.3325664614684634 42.5673784880123378
 25.2293834839639892 20.7305788310999866 43.9263755770830144
 22.7593649023705034 20.2175585370777675 40.7023653381645047
 24.4243854468925257 20.1245803345239196 40.4183584725920113
 23.0503722629847729 20.8485627257984412 42.9363744873883135
 15.4864958847161223  8.2515943103756300 38.5853838704125280
 16.4984949799594780  9.0786014982438914 39.7223627036032951
 14.4994874174903750  9.5436025779370777 36.7493739420257768
 14.7404796307311710 11.2865865713175140 36.8753626313154754
 16.1434909179608326 11.1446001249788846 38.7143625825332620
 18.0623869541825641 12.3415693186809854 40.3163805727030820
 18.5593700263629593 11.2475579604208189 41.5403781309523410
 20.8373915812277026 13.4335633033750703 43.1913781314997323
 20.3003790518450451 11.8155598951007956 42.9263760322548222
 19.5053914317401080 14.1175708462432770 41.4003771073953644
 13.0009999163965784  9.6330061542803005 15.9419862743289045
 13.0020053272875682  9.2249937099166690 14.2320103386080792
 16.4570037124993824  9.9990087153188867 16.3190009712972106
 14.9329960194033493 10.3180088133123142 17.0069780426935928
 15.3769839492124323  9.2159910058500376 14.3130127753035055
 17.6049913199326902  7.3689979715337657 20.2680056703278915
 18.0009979060016185  6.6659895646498439 18.7100225618515559
 20.3629943382956355  6.6240036927595742 18.2060225013165393
 21.3520043616579507  7.4270080879106679 19.2710142696812277
 19.6680036116610530  8.1979914866687249 20.5770199995781695
 22.9770061094004063  0.7170008322659354 13.2910139109790606
 37.6788882572735702 23.2319717582389593 14.3290048671119408
 21.9430117472013961  2.5880097980480148 14.4390014645932006
 22.1259937965809392  2.6120084647135307 16.1770201901990767
 23.2049895100988834  0.6059987856805108 16.2019823505006286
 11.8483926304918743 10.6825663389217667 30.8373739510416343
 11.9733833828665972 12.3625613914504342 30.5303982737216089
 10.3553851573209457 13.8195698595461103 31.4103710535716907
  9.0813803755579823 13.1175630421233294 32.4553840330198966
  9.7343939715201966 10.9445663585865702 31.9263765088070919
  7.2309942059353221 10.2129889570661252  4.9589981686547384
  5.8039932313744105  9.7089884491281264  6.0099911937650168
 31.2869989856644466  9.1769987116557292  4.7610224145389610
 31.3420060184153648  9.5570109698463437  3.0510011754419071
  6.2489927037087849 10.1189891700223402  3.1070006787971725
 34.9688900354369494 15.1899648311248399 19.2819776867283750
 34.2728890949196057 16.4379632527579638 18.2549954510188641
 32.8249061959438251 14.2769734569161670 20.8800089797901407
 31.4288975252271854 14.3259600542796157 19.9550046439695592
 32.2489072696804513 15.9249731427922008 18.3489999566916886
 24.1564840798578153  9.7916088541270287 25.3823944194442106
 22.6384867951013220  9.2086038637788423 26.1033976521107078
 26.0294836131000302 10.2515999547522139 28.1283679627438943
 25.6645044436035477 10.8246016356952435 26.5433840420357541
 23.9254888098310552  9.1055897713870326 28.1643841468450518
 18.7299946252109208  5.2950061232521888  0.3070001411431874
 19.7454991000288089  6.2475955277661237 44.3353744576681947
 20.6424799537376735  8.4405999289514675 44.8533764326939561
 19.6230185215507547  9.1020090635829281  1.0130016138055893
 18.5720044911023479  7.1439932438696445  1.5800005493230769
 38.3723779002697327 18.8715589473692624 36.3843646397578553
 37.3293801064323958 19.6075644016421720 37.5203921020478361
 11.2193862943618701 17.0395731744997967 39.8453613700619584
 37.1923804194348548 18.1535632944426268 39.5493944131652952
 11.9653775556732587 17.3225587865921469 37.6633695574229819
 14.9919019149807085 14.0409723114653300  1.8290014960843004
 14.2569062491543264 13.0319686725612485  0.6419986748627210
 15.4768842904888544 16.5659731172996239  0.9490015342084821
 15.6323815786372222 16.6615803612740514 44.5173762413260263
 14.8293809205994247 14.5985709744972709 44.2313760271995022
 16.4999962148979371  5.8310089700461987 11.6229889016452379
 15.4350039792193154  6.0489899292675569 10.2530148045145513
 13.5019954820865671  3.8549938588100328 10.1649903445038063
 13.6970032344060506  2.9790084690251075 11.6040067870057602
 15.4710011222375954  4.0289995374019467 12.4839795668558420
 37.3693908232739389 19.5335799148484881 26.4313940960004636
 37.1473846772021616 18.6035712954124541 24.9563614693973541
 10.5323772869569421 16.2935575695115666 28.1833662614845259
 37.6333784054084362 17.9835598862396751 28.4453556862102737
 10.4233798019704000 16.5805643191364034 25.8193907865382144
  9.6100059685525423  8.8220041631931405  8.1899896578499600
 10.9089864584744785  8.4119924387650649  9.2259872654288131
  9.7719922041905232  5.6650039108969210  6.4970024882145836
  8.9220168782855183  7.1920083804362118  6.3529830551861952
 11.1970136757321299  6.3090086645694017  8.1509834509177654
 27.2578887854895235 22.1539717636364166  1.1060003845261539
 28.3818791647942632 20.9279634301558417  0.7500019237899550
 14.0969982742238802  0.9080009073031237  0.3639999430455647
 15.8354881447203457  1.1905980313120510 45.0083760450186929
 29.9548887280952378 22.5739701434336588  0.0990001089694701
 27.2908861763496127 21.3409703393050023 18.6840184238967630
 26.4999026256866088 22.8149703207805707 19.0140082163405424
 29.7468818808721096 21.5289712118811032 19.9820054562013674
 30.4178847242675694 23.0939721151828863 19.9329872031228170
 14.4659884813703457  0.3779994974671597 19.5909920159786495
 18.0304999429770270  2.4385981563257877 38.3473599317113170
 18.3154889532775762  1.5055973358223893 36.7693980343184919
 19.7954829971267650  3.0735912792706817 39.5443657384040037
 21.3514940488792035  2.8005880435196415 39.1023859999249410
 20.6254811772469218  1.6715974775382378 37.0913691291699337
 32.1469049805986558 19.3359752852139977 12.0289977593993793
 31.0968885061129043 20.6999597182353519 12.3800083184128891
 35.0448750441271528 21.2209612838714889 11.4380152165068569
 34.4559041117612850 19.6949794089122356 11.2780036916700332
 32.7408911462445218 22.1449712431600645 11.7299954762954588
 11.5808893033839357 17.0669611162957757  4.2719996501848776
 10.0619017956329770 16.5949826018822897  5.0210184907106878
 37.5168941875521398 20.0139722009622716  2.7540013015672589
 11.7608885984392053 19.4119618146706507  3.4289989556743579
 36.3758994327027807 18.5409819599106491  3.7719998777707819
 13.7093817411644423 20.0375646140271044 30.7453627939228369
 14.5013816126625255 18.4935617053365249 30.9963888016014479
 14.9903823154207156 22.0595683288157041 30.3103597753828602
 16.7283896649998702 21.8095696919088056 30.3173817986981824
 16.6313717147641356 19.6145600163301843 30.7173653074140134
 30.4469964902471020  7.2229932073691829  7.7709787311184204
 29.8729947819066126  5.7009886403950549  8.1160092444698542
 26.5659888074015349  7.3389965421410324  8.5630176577102137
 27.3349986398737386  5.8270117385430904  9.0219861622747306
 28.5180003648163520  8.2900062815134863  7.7969828690732168
 32.3920052720455374 11.8500092114023321 16.2129910709240050
  6.6610025448392474 11.2900042850488003 15.9679904122837009
  5.7290036568787102  7.9220078752295411 15.3959899840306544
  7.0430059056781520  8.9870099377436130 15.3900099383685784
 31.4860064145748133  9.7380089358507149 15.7860067499763606
 21.2448918824959527 22.9479712914860166  0.2639999885627455
  7.2979951284394184  0.6620000363552588  1.1970012763550697
 19.4933792244991260 22.6655680605151133 43.9383764414457758
 17.8873748847828260 23.1065678100044742 44.5253768175678672
  5.0290023027529083  0.8650008664756952  0.7110002471953846
 11.2310109969263774  6.7510081583685277 17.8589986394110802
 11.7750013152157269  8.2660002940323736 18.5900139182239386
  8.7260194238010786  6.4150106595999006 20.3890109882325206
  9.4089918245355388  5.6690065078317140 18.9639932889849767
  9.9169941598729281  8.4050031218685302 20.0119962912642144
 27.1679987213846950  6.1169919649264832 19.6820064988204351
 28.0880075670018066  6.3859938592413714 21.0410171789039744
 28.1060124551608475  7.9610107600042443 17.6059792831784456
 29.1369909420887865  9.0010032354835285 18.1970071294471971
 29.1370078181741547  8.0410056084897032 20.4420159384191251
 33.5183871284154833 15.1155761906960642 36.3503871075869540
 34.6503891461197924 16.3025760651468836 35.9673923649565666
 32.5733872016205765 13.7055635585531679 34.7063728876538988
 33.1323851819928237 14.0075705714929075 33.1093835722453704
 34.4243826700015987 15.9005661313546014 33.6443711421202494
 25.0303851752595179 18.9655713095960934 30.1073553465057877
 23.3033769121463230 18.8525660068006680 30.1533835767533063
 25.6693769783109573 21.1285714509533413 31.4533639576119342
 24.4553756068172881 22.0615700115737887 32.1943912825711465
 22.7183866693725385 20.6655752470516489 31.2223620422260453
 15.7644813513243314  0.5305970890141825 34.1443845055472153
 14.1914828648528122  0.7045988828308843 33.4493854108355180
 29.8063772725266034 21.9105679413205543 35.5023985113537464
 28.3373930473903926 20.9405766750631308 35.3333716146475751
 27.2743828234179766 22.3865691252464849 33.8813984065444487
 23.6249922460154522  2.6989991214660733 11.2790003659470468
 22.6200045171946478  3.8389977736292993 10.3480159844643875
 25.5049916855718806  5.7590030677089423 12.0220210394602880
 25.7260099895602252  4.0980103847461891 12.3429954600347234
 23.6859993642752222  5.7190104742800072 10.8670114625308276
 26.4913735771615393 18.5325586190213230 27.3203822477198912
 27.9483860350358491 18.9555635437252654 28.1363866603362247
 30.0253742231555947 18.2215728526877321 27.0953603779960801
 30.1023843892352190 17.4565612211793599 25.6643626330864549
 27.5103883054240406 17.7515779986464715 25.5213851777113092
 22.3145007121614398  3.0026056872488160 23.7173594329414250
 21.6634786363050935  4.5356008948627062 23.9783974867663972
 25.5354859478113063  4.4805913495291474 23.0723752655852969
 24.9484865203421968  2.8475900633205069 23.0543898252228239
 23.8615093942460845  5.5536090418156299 23.4173604755604998
  1.3024885260742536  0.7615985856949968 36.3203962725241070
 27.8614896259229781  2.3155984045811802 36.4363729156674481
  2.4414889451219417  2.9095970927314876 39.5253836237645331
 28.4744952664096402  3.5556086901352453 38.6003792879439516
  2.5214889605723818  0.8875976451763594 38.2483720546534300
 20.8223960622282895 19.5475715030075747 37.7813848524965792
 19.5293846807234246 18.9835677203367830 36.9503850223488186
 17.9123888037561976 17.7475796330129896 38.1553642232576209
 18.2483955436815606 17.1455661918190678 39.7703842824048337
 20.4233822046869804 18.1135731737264116 39.7153859836642056
  5.7830101923057455  0.7069992269445480 18.5240068990599340
  4.1020130457534210  0.3729998206707207 18.2400000334874406
 19.9698807340290188 21.5129705534581355 20.3809922906401901
 20.7559052604947922 22.9709717618995981 19.7529968893695020
 18.0179042016300066 21.9439704502405277 19.4220104226487074
 20.2273829745916842 18.0705677524734760 25.0793601358560139
 20.9333753157657014 17.0575772539662331 26.3913912147912590
 17.0113713994463112 18.0935660011764519 26.3533816821360780
 17.8743708523124454 18.1395618792962203 24.9413660518659306
 18.7403833944655780 17.4755721258231063 27.6363732969092588
 34.0903893967576579 20.8275593182150054 40.1013707491256284
 34.0723770250765483 22.0375690897022665 41.3913753265388848
 32.7073780479841929 21.2265697775365396 43.3353749128400025
 31.7753752442800064 19.8105671195880326 43.1283747261796293
 32.8903890579098501 19.2845765884997604 41.1523773652487748
  7.1044964454564141  3.4085994300068498 30.1703723428387569
  5.4714838246989741  2.9575949861610038 30.0683944429498275
  6.2154885448964770  6.8865976037026204 31.1553583487850290
  7.5274759321540499  5.8855934693063308 30.7113852617519356
  4.6264907989773434  5.0475982277188232 30.8623814147194153
 31.8239037794784920 16.2909741846280021  1.2900000470756343
 32.2758873233905703 14.5449747223326344  1.5360019103305729
 34.7373911923837255 15.1195806294927095 44.1523759997333514
 34.1223802344995164 13.8245615149570309 45.0833762373976938
 33.4463651909240554 16.7365581154583118 44.9143760696834917
 27.9093823367326479 11.5775780346092194 41.7113757245244230
 27.6333989956358685 12.4305719938135226 40.2393648331157081
 29.6733752860061166 12.6995679165024669 43.2533758018675627
 30.4353823311039022 14.0585666602865764 42.7853783344208338
 28.8703835048923096 14.3635633193157997 40.8563741656511397
 22.8418927604605670 16.9779785105071497  1.0629984198106628
 21.8608887975259414 15.7179788712796604  0.5960021569785680
 25.3498911617367995 16.2249681488920068  1.1260018251307571
 25.5649030362326108 14.4279814983363401  1.0109992045763176
 23.4148772902489135 13.9869595065572785  0.7509985980669681
 23.1823936733565219 21.4755678637211780 24.2573756775775990
 24.4533745215286871 21.6925692713060805 23.0903607059477594
 23.8743840627484474 18.1485610883926576 22.2803816423697256
 24.8143689702324508 19.4645649216215411 21.7103745626707116
 23.0363928427589180 19.3495684006929061 24.0863554323174043
 27.1450031791472561  3.0980066205008616  3.5430003716141614
 27.2389983499069004  2.9039955895428671  5.2469917313352870
  1.6710003165111988  1.5180011287323636  2.3309991473900453
  2.5399998300529734  0.4609992398719028  3.4200017051555038
  1.3909986608485745  1.2460000193154657  5.2309996395268499
 10.1289951344045530  1.4840004056341882  5.9240053856845254
 11.6030041729117084  1.5250002275237027  5.0329785820348443
 11.5540022385949595  2.5879947853997511  2.7680000448216697
  9.9459976354407118  2.9559967471688875  2.1590003492033265
  8.8650101847727196  2.5360093514609887  4.3279991535401434
  7.9054895565169243 10.5055964453701680 39.4003916087518533
  7.5794865978996011  9.3705917696310426 38.2173845453135641
 33.0224957239710406  9.5886088743220377 36.8323697272752213
 31.5604912686624033 10.0676024457038746 37.6073745844053420
 32.8784924829362240 10.8786037409296892 39.5063562057488298
 11.2408985289468593 10.8399632974236209 11.3310086418566378
 11.7798899200246350 12.5149690074543152 11.4619807025313989
  9.6778960750023622 14.2389750550882113 12.0449898512078164
  8.1838967747841860 13.3259754631986507 11.9000190472786436
  9.0708923313031740 11.3409693506314131 11.5819893461590180
 18.2798968800478825 22.3889711866948389  8.6480067915136924
 19.7378988527179757 22.4339709305095951  9.6030019623971192
  6.1609907437255798  0.6450009376567637  5.9910090791255408
 18.4528998686901033 23.3089706580152303  6.3659851241635934
  7.1089980615440957  0.0880000480685281  8.0289814587361210
 14.1303858660516752 19.2945720883601446 42.7803768416852748
 15.3643782127968045 19.0155770764638596 41.5133773187205293
 15.9063830054551936 21.1925580270828569 40.1663810940126140
 15.5083850996373229 22.5375697798275318 41.2273771045940052
 14.2463835600992077 21.6155685404610658 42.5093765754278010
 11.0743983822605916 11.6185721038029079 24.5243937770646419
 11.2743979181230536 13.4175737857935733 24.2433769343231873
  9.4623855402635506 12.6745727631590182 21.0903978589923540
 10.0733837150758294 14.0645703372091013 22.0873892596390142
 10.1043782215283287 11.1985675692748607 22.6033947148744154
 16.5219008268245844 19.7589597802494943 22.4440174373047832
 15.8269121336313940 20.3869808871559854 21.0940221290905825
 14.7668770758587247 19.0059619525974064 24.0370200556052573
 13.0528940299306129 19.5319701815158169 23.6980148912921287
 13.7748953059397721 20.5299720875119398 21.6649805796903863
 13.2694909870016033  3.8965861077579178 41.0103784628001549
 14.6174887867679875  3.0816042566180677 41.4903767946096380
 16.7444760408354369  4.5975861582911630 41.9133744184492372
 16.3784979274442613  6.2106035000271422 42.1163743169886828
 14.2874996394886669  6.0296047268912147 41.1273744319086134
 21.6800006255240483  6.2999895132790744  4.3059998340438916
 23.7790108679833558  2.1650008521994497  4.3490017987593825
  3.7280079512134345  0.5490010624022479 11.4429985878919229
 23.7318871208530169 22.2169705281712524 19.8349960003419419
 14.7470081255561656  6.8350086077697467 19.8310093032338877
 12.7108927755188308 19.1419706023250953  7.6169925553199027
 19.5223868560133944 20.2705584976928499 30.4343551161185317
 24.4514814403557637  1.9335988898721417 26.6893968236181642
 24.2873752519677453 23.4235677937284166 34.5703721522178427
 17.3814757125150123  0.6815969777377527 30.0383583045107514
 26.6404743010911851  6.0645906258809417 27.1703827690294304
 12.4449002411040262 16.9369824759145473 11.6290142506835430
 17.2449975970179104  3.1290032064112818  0.4640017096634330
 12.2078962958532120 16.0659817042339377 23.1670140185253040
 30.4679127737294451 16.9649818110874619 12.4190145253450819
 28.5943802002474854 20.7895727172118008 31.0463584255807810
  6.3054759787364612  2.5705968511796886 38.3093957024323615
 21.9133918848591911 22.1045688990455496 38.0423776029453222
 35.6993773305344035 14.2335580949072256 27.0113679184696132
 19.7555077769646381  9.9646062336926189 26.8553883941170675
 31.1173994136207455 16.6335782232798586 42.3243757082636876
 19.6193725685930929 15.0455632683379079 34.3383735625549420
 21.6674902218637158  0.5035977006391086 41.8973777963031750
 24.0200052911274895  6.9720004303565499  0.3169999553779644
 25.8749928991043916  5.9300037885366184  4.5060006490770546
 21.5238882738287387 13.6009711832052691  4.5180015134398159
  6.4919979307627393  7.1989945313990349  8.1509834509177654
 31.2553706190191392 13.9075658189246223 26.8863759034569298
 28.8674836439083933  9.6186013198004598 37.6363687451911773
  8.2694970382607220  4.1426073847791205 34.1963927814568081
 17.2754767582819539  3.4585874551841456 33.7923772722566937
 20.1554847449920729  4.3465929929432043 30.5403650164917408
 15.0385021545701552  1.4845982348995745 37.6023912130202760
 30.9428905658313020 21.5939700856740728  4.1520000672325041
 22.1374734384204821  8.4065898994408901 41.8283762239705084
 26.6489025761769796 14.0389712240116857  4.2569997023158308
 22.7724756040202685  0.7845973037540243 31.1003600500443973
 21.4589000989282432 22.0649704826942852 15.7089910103889849
 38.4053792019680102 20.1325616900548141 30.2973577064054638
 30.3924883154509295 11.4245874157204117 33.5863828205485788
 12.3409983276804613  0.8039997840651928 11.9870015296361458
  8.3284824974517235  0.9485977955636602 30.9153863649060199
 20.0184901806003097  4.5925995629588501 41.8613752032148838
  3.8054834374984114  3.3545881798627319 35.0173805654582040
 17.0454960248562770  8.0315953554812864 30.6603736601193582
 17.3904893476321085  0.4125975871815656 23.2093726752983613
 21.8040060454902793 11.3929934482937743  0.2160001553817962
 28.4758840959848492 15.2849712380360589  1.0650008290399346
 17.3299003197966428 21.4939716171282988  3.9420007970658517
  8.0150013680356427 11.0940008766017435  8.1629888456181519
 33.1913818127156901 12.6535670612560782 30.7783889551929519
 30.9819003260127595 19.0459810830087406 19.8010184681710406
 37.7733784706036460 20.4805615428666741 22.5393810442644380
 11.1434886415477816 10.1866036063582435 38.5313822459489117
 31.3013926890876810 14.1435736473540512 38.0513929748146609
  8.1809980328701322  5.7769946189040002 15.9979812473465479
 33.0369019864977886 17.6029747642114209 15.8280029797395922
 30.6999064151186687 18.9739791319757209  0.7200020280518619
 24.3833802429573296 12.4525611060595871 41.6083739683327423
 25.8360062479840060  2.7179971278709916 19.3130104994444629
 12.4918937387614708 21.1779701735242405 15.2769780146800489
  8.3524948411729572  6.8105897958128452 38.0373942315602491
 15.0138935989566988 22.8379706175852597 19.3670121239080792
 12.1038872224402443 19.9309597154109817  0.1559999108718474
 26.2439891734703821 11.4849965694315657  0.1799998274623220
 30.7618933710062485 13.3669628364048911  4.3180006984066530
 12.7169926904365074  5.7849980253547590 15.4330028424088219
 25.9100151574748025 10.7460087957358290  8.0149827154817110
 21.7314963405328676  0.4725972981704182 22.7763630053124082
 14.9173845098287394 22.5935680274415134 33.9953817011337591
 35.9343820222858668 19.7075764976531929 34.3433569339400080
 16.6970034296460419 11.2989943475115435 19.4320224687950684
 32.4958985514845793 23.2269715161349204  8.0490055510288379
  8.1114846193768386  6.3255859712051414 27.0363753821473942
 17.3424831894654510  6.1765997447701926 26.9793837348527354
 12.5808991708417306 18.8579817011062971 19.0029994959171695
 14.9683827926543849 12.3985682554963823 41.6133754610683013
 21.7038919620692212 19.5409797790981301  0.2909998947270295
 33.1448791942853020 17.7189643889512816  4.5710200546392885
 21.6969079140289267 22.0509711344347608  4.1509988626178691
 32.4523927759765130 22.9375699754619689 34.4533988347974969
 28.3070034197517124 10.3390111073466464 15.2780199923332898
 12.2919016267504748 13.6169826315099201 15.0750155634562208
 26.0130057249624329  6.2589969216550472 15.8660125123947715
 24.8504869919479283  7.2285910117875707 34.4453801372051629
 12.1940120208685094  2.8810012437156112 19.2919897328747325
 17.2824830096998987  0.5325972755152352 41.6993748601616616
  8.3843800359332370 13.9695626369862449 38.5643631038427941
 32.7508999715099804 22.8289708082414506  0.3420001705155504
 24.1850020022582761  6.5169892554604036 20.0180216403025213
 28.3214936864306956  4.5986067147817202 23.1703664683661685
 33.4478822471178532 23.0769704548805095 19.1750164154543796
 12.6329958410456413 10.7690020498909025 18.8640087376500745
  3.9654832762747105  1.1315977373413613 30.6643603572274124
 17.4343897582355254 22.1495695176853182 37.7913968986429367
 28.9068776996145225 15.0129631933994592 19.4409925372881851
 28.8253887037103880 20.3165622032502462 41.8873748108320569
  5.6534838370193912  7.6845872866572700 34.5913929187875695
  5.7659914762347819  2.0279996176357447  3.7519984371661788
 10.9208883151978338 15.3719609898650926  7.6059838348965316
  8.1704974795740739  8.7905902314056323 30.6313794993335264
 18.8829063340786583 14.8339711020502776 19.4029830046330041
 17.0618842031157207 21.6349708899245101 15.3269929420356146
 35.4099011764656026 22.2779715016404189  3.5780017600878113
 15.2968900200023636 17.6499780779512392 15.4560169575325794
 21.8348937702281987 18.7609608683188185  7.8820173062529220
  3.3169967091891075  3.4749941417870795  0.0419999899434593
 23.8364991497792644  2.3355979855263884 38.2543974036917334
 31.2384937357765153  8.6696064140354601 41.8023766163533352
 26.7974894872371117  9.0585954754981426 41.9953780597592896
  3.4699948739957591  5.4529914802927566  4.2310000946986586
 30.7858933719228212 13.9019815821110910 15.3510037314363839
 10.3995018553444254  4.3116041384512478 23.1213935186638437
 35.7003947563643820 21.9615691538760096 26.8253975590542204
 10.4804869118844763  4.8385984431466662 30.5253695989603173
 26.2253920825687494 21.3205766409785795 38.3963781847898673
 26.9424967457774613  9.0615934437913896 30.4833733691970856
 35.2583793968595458 22.4245679461167882 37.9443864001644400
 26.3553825598168352 16.5895572765781729 41.9723775356484055
 26.1594893992376072  0.5975984237944829 42.1883749728276243
 17.1013860454980211 19.4465742678324709 45.1463760184476826
 21.5890058795712463  3.0929965950372713  0.2679998236499038
  7.5620025485440703  6.1290005205937828  4.0609991754035883
  3.4289981528837123  3.1019984173799657  7.9220201874621283
 12.3889877652724394  8.2009984111345542 11.7189867558720877
 30.2903842843128430 16.6275665894101650 30.0513603734881443
 10.4328895020369270 15.1979605311761770 18.9489978714535532
  8.2144845483654905  8.8605861525616394 23.0383977334143957
 21.5309943832454458  0.9909988990243220 11.3470007336650749
 17.3723682711220917 16.5195572697408011 42.1453775384497646
 15.4168935938674991 22.8099714044756645  7.7689853825643951
  7.7910123055495371  0.6339990516624465 11.4619807025313989
 19.1759809996048460  9.3209885887670652 16.0170086653622512
  5.6380065347792350  7.4590116450446304  0.2160001553817962
 28.6679970277082283  4.8339963187778601 11.3730048716198713
 12.7439873676751922 11.4960006374849755  7.9849918804188631
 12.1400083668528360  3.6539935448090559  8.0129893669276839
 12.7534896330591110  8.4006026763652955 23.1913872349358989
 28.1423900411497421 20.0825682146791600 23.3373547131420835
 17.3108925652112156 13.9279608819216172 15.3070141531191268
 18.9840063697879877  4.6919924851920642 11.7719917060586923
  3.7204886195954412  1.4725988962413115 41.6723740479298499
 16.7608863081286010 16.5859688405972001 11.3489940822191002
  8.1318898929535752 13.7619637049246251  4.0349995677864161
 19.3948882771566993 20.2999785134290356 11.6109835069448550
 16.8773748525186456 13.7015658675314178 37.6713882550153158
 17.3919837994811068 11.4929893042881357  0.1220001800465958
 26.6554792801642435  5.6395949856315104 38.1593962237419007
 21.7713836783985570 21.4455687151861092 26.4893824175721306
 28.7024899110681098  4.7535992393428099 31.0573671460041538
 33.3553695103898846 17.6365641950683880 26.4573982339552636
 22.3374857969794220  8.0095976866935938 30.5973566637863961
  2.9900030184459250  3.4670059451078479 18.8470199715646238
  8.0298951858864687 11.1469718049673361  0.2460000511198895
 12.4459095494504979 13.5949746806953353  4.2229995184568168
 30.6999943561993796 10.3819924161298118  7.9149981641468097
 26.0240002166591147  1.3700002682446613 11.7950058211824462
  4.0714919756583274  6.1806039730276723 38.7103758854252149
 13.1384719224272981  8.5485889334435896 41.9593754666710126
  8.0284889286999057 11.4595958591016718 34.7313803513316799
 12.9383741552634994 16.4655758248832917 41.9813747861672582
 10.3978987869160022 15.0809778965887240  0.4100000851998159
 17.5519020719738670 19.1249690717858094  7.8249803555820376
 21.5200139423104240  5.8280113892001193 15.4099887272850662
 32.5553850059015559 12.1505699693639500 23.0653985456461967
 19.1294867168035871  4.5955930063607440 23.1133748210715133
 39.8483838519765357 21.5665693788470030 26.6453619419246799
 35.2448993180104324 16.9479799281179098 12.1050168247097396
  5.2669862583049376  2.2059988579246506 15.1789868118991755
 31.3144906018581679  8.5635991629965567 30.6773624262048088
  7.5180008254810105  2.6100105177949819 19.1179794647834953
  7.8889993891015999  8.7299922841556832 12.1819872609208861
 35.4458917896698225 18.9049774646575308  0.5580016849986335
 30.9440060952898790  6.1620105281633712 15.2579959000405729
 22.0234814474966214 10.9655940198287194 34.3523723058093537
 15.5225017571828818  7.3856025200124398 34.8063574389887975
 23.4963728316856688 17.7765683817648856 38.1153613420484092
 13.0323841076048232 21.9865696402915098 38.3043670276710699
 33.5863868756181603 12.8005749167277738 42.1443763338351260
 29.1944738043599834  9.9885934389465838 26.7773759802526818
 14.7959966762381452  1.5949997962439271 16.4240141973934080
 21.0980145012191791  3.7180055766255027 19.0290036338719659
 37.4613891230912230 20.4235775932927162 41.7333750440206757
 12.7373812966388584 14.2995701404788793 38.0443709514993458
 16.4579937103909657  3.0700095893405899  8.0030226241575537
 26.2029977144805848  3.2380088785311516  7.7409878960555734
  8.2424843472358003  0.8045987214268179 23.3143859013945587
 17.6579038551535383 19.1939711540623037 18.7410100711914183
 30.3628760232993216 16.1959601685650689 23.3099914739004497
 37.7508871734478433 20.6949599965376372 11.3809782658359762
 34.8438814866175619 21.9349717061057063 15.4160140763233713
 21.7204860125029953  5.9615976655274538 26.7643739112752819
 12.7184867738606684  0.5905985537972205 41.8813766438194861
 14.4029998283667116  2.0670010030157715  3.9620022376704545
 26.2839000965425349 22.0169707726873227  4.1650021362099023
 14.8093746814932885 12.4725662076637462 23.1683731198121450
 12.9708960552142560 21.6599718530017782  4.0869987830207615
 17.7714967585084054  8.7946040803013066 42.3153784577448349
 21.9413898352198764 16.5105796779136007 30.6443815683109193
 26.6343916811726800 13.9245796471755270 38.2663574950158889
 10.6114860920318872 10.0846061902914759 26.8613684397791417
 21.6223887455044697 13.9495580307591158 38.3413798860492392
  8.1770064736648429  3.6259928015924250  0.3259999240993924
 12.4009961758641740  5.8339915354561214  3.8389990408741741
  8.1400090785199275  3.1030009745396674  7.6400066704436593
 26.2278886281227557 14.2659690848390515 15.8579938148024411
 26.2263830895829635 22.0425689081105638 26.8633617883331759
 34.2683989935972448 18.0905790194487643 38.4533698320845261
 21.1390165886921721  3.3590062312689541  8.0050159727115791
 17.4363745699310826 18.5675738683739873 35.1293705114934909
 24.3548969825146777 23.2879717114180629  0.1409999630028007
 12.8034869539515341  8.4295980979660818 30.7873590236860686
 35.6753861431539789 17.0185746399566646 30.5253695989603173
 13.1834993892932975  6.0235956293589856 38.1563608975346327
 12.6854959432855612  3.7606016517099876 45.0703764335891037
 12.7534780294255459  4.1545980244882950 34.3453955858702571
  6.0884935507769358  1.7645980174710931 26.8593750912251217
  4.3034960160929323  0.9085976650888921 22.3603874047881384
 17.1883900610485796 16.7015783519669689 30.7973710698324261
 31.7073950958106430 18.2675745371485689 34.2193615932043400
 22.0658971382247024 18.2579763036670357 19.2060039247942385
 27.1414876009012715  0.6755971664079590 30.5113708557059020
 16.8910126520503994  0.3500001134056372 12.0550018973541757
  8.1175001268822466  0.6065987296006589 42.1963755490694723
 17.0228885408765649 14.0039820202074239  4.1640009315952664
 21.4338945047658349 16.0199683675785778 11.7609829856353194
 15.0588841930848201 12.3289643482653535 11.4869881662091817
 30.5423755795549567 21.3225596374130255 26.9563696197289815
 14.8543910028121253 18.0435726965969714 38.4863959933546411
 30.9013727660585076 21.1815595907568834 38.0323655567989576
 14.2943756761970509 17.7405681142314577 26.8203688842929253
 10.5724988758003189  4.4376002353055162 41.1133756886542017
 26.3219975028211515  2.9840053462930420  0.9680017701984494
 15.3290063994396490  7.2670047059886640  0.2299998047037316
 21.5199946200881271 10.9429959702720030  7.9069794665544766
 30.4539930216815087  8.3979883342385406 11.5610138829655167
 26.1738910959518449 18.5379607068206020 19.2030139019631996
 17.6133794009556688 11.1275600963626804 34.0863961839755447
 21.6833701263740544 19.4275669469050136 34.3763830952101230
 26.3714811630654751  8.7736046839846384 23.3973816866440067
 12.8633947213211197 13.5255713021639536 27.0113679184696132
 35.5363877646154975 16.4095741580540526 22.7293834041641141
 29.0133749663999545 15.1825770260404109 34.3053927046610525
 12.6414860174497630  6.0526055691871932 26.6963735435572573
 19.7423741333867859 20.3445620039060806 41.6543750165545248
 12.9780102533651149 10.7250036598792402  0.7589991743088094
 23.6130018496812966  7.1950097485316373  8.3180169990699095
 12.9734799811671557  1.1025984970381428 31.0323596823263728
 10.2203877115899999 15.6005738720401563 34.7633645349485576
 21.4514967638824352  3.2486041670554560 34.7483691174171341
 10.0939972359180441  4.3869917820315392 12.1439777282657033
 35.4749035591635007 19.7509657572363260  7.8389790988364485
  5.6330021297961039  7.0580026863051701 19.1179794647834953
 19.2168986418139482 20.0529730675862190 23.0840182332758523
  3.8814894929226189  6.1925982707318692 27.1043757498654223
 19.0308931552296485 15.7949820627416120  1.0210021900474306
 23.9289034983922484 18.3029753593578874  3.9889985195646402
 18.9318958264952037 14.6899790761317082  8.3200103476239367
  9.8409852052730020  9.8749902332258550 15.4320061681318101
 17.2549903551037325 10.5049932168310125  8.0440221796437736
 26.5744902431067942  3.1326006290944601 34.3143627731541727
 35.1739005452824216 14.0049813062832325 15.4529816313253132
 22.2974846540664302  6.5755884078932363 38.0723684380081622
  8.7455075451985138  8.7066083995739838 42.0713744733815389
 13.0523794290045583 18.8675629981655639 34.5103904820921485
 17.0813901892475997 16.5285620227850423 22.9313911587641712
 26.1668783316107962 18.9949629432952101  0.5690013447467595
 16.3400156428846799  2.8340093975904330 20.0679912642818579
 12.5073834836603979 15.8245597187502547 31.0623958207654489
 14.7200053071214985  7.2699996348186966  7.7379978732245345
 15.2033853565469315 23.2795695466089576 45.0793764023105297
 25.7624767914892239 11.6935895005128252 34.7203716309083106
 17.4433812050764558 22.0745693091224098 26.8753671830335605
 14.7758958343846487 17.8539749722434067  3.3429995565809985
 35.6893780164178835 16.6975572984345320 42.2243775659159155
 14.8174794515506587  1.8695975612865958 26.7193876586810113
 27.8618874178877860 20.3129685330301051 11.8040211930517920
 23.8369017820355360 22.7269709282659491  8.6080039103044861
 21.4510098020143616  8.5519948530892567 12.3189846706339523
 28.8048906290254294 15.0789663010777186  8.0620076200062361
 30.6888990258590368 21.5559710396623530 15.1750001147911213
 17.4283880771314870 14.1525711922796873 27.0403620792554449
 26.1220051053970721  8.3890002750543484 11.7199834301490995
 31.6738861308341981 18.2259745973756218  8.7219872048937983
 28.3624903147047505  5.1726006729700842 42.0903747093715097
 35.2069113149484707 18.9579816156429644 19.1870218101547643
 14.9253786780058189 12.3845691028207661 30.6693890319887075
 23.4518970991509690 17.6839821898120810 15.3269929420356146
 25.6848835384953915 16.4969758779387341 11.4199844727681690
 24.2898868828808077 12.3349789231103681 12.1070101732637649
 28.1199929583364039 10.0110009441897958  4.4870004130870873
 26.9374883708618071  0.7055983458605756 23.1263768900489062
 21.8973985198328727 16.3315712871212604 22.7513555416346271
 26.1953737863200473 16.4445608383155317 30.5873899210162641
 26.5864015575548436 15.9265805910935843 22.9333845073181983
 26.2703820801930945 13.8995709345346299 26.8513563936327877
 23.9593855631095316 12.2965804778858114 30.6023853385476912
 24.6323847567184124 12.1855652945877360 23.3963850123669950
 21.7793686369292026 14.2925634017630525 26.6193578039698799
 33.0909023453800231 12.6939825516457532 11.2330174390757627
 26.6948862001263265 19.1199740188507548  7.2270210927504266
 17.3959987217874001  5.3959911027070495 16.3680192243757645
 21.6398759778960077 13.5239601743124904 15.9689870865607144
 30.8650033158012249  8.1390063984061349 22.8400142489125599
  7.3869978254733057 11.7089972548036041 19.2209993423256655
 30.9250090541750069 11.0229973361621454 18.9109883387983722
 21.9529957085063891  8.3519896199881760 22.9480174978397997
 21.4269913677788892 11.4099883054666229 19.9780187590933167
 26.2059990235344742 11.4770067312472825 19.0150048906175542
 10.0809953617159174  9.8710027268920246  4.1380013239780933
 31.2030100333526939 11.4690078504380910  0.4890001126659698
 26.0038836903881325 21.8479707334060826 15.5209819990433395
 12.9564869172797419  0.7715981653380223 22.8323579783300517
 17.3625005935263026  9.1806007385604840 22.9583919709959794
 23.9743969800736920 17.7105771638516707 26.9583629682830086
 19.6624859849800586 12.3876070731083772 30.4503925113031997
 26.4023761952872000 18.9615677469921984 34.9013586189386373
 17.4054853463597823  5.3506024985850331 38.2103625219982490
 16.8579990972873830  5.6190050309649671  3.9069994085922017
 19.2870035646580646  9.9680044271826684  3.8419981243804586
 12.7655054757515707 11.1806030025211598 34.5703721522178427
 19.6635013346362761 10.1506042735195230 38.4203889741906366
 21.9493835389038487 16.0635636575088867 42.0823741331296688
 17.1940040307789523  8.4480107935806270 12.0260077365683404
 19.0380042342190485  7.1580098869295634  9.1549968748797479
 18.7879986557609087  7.1750051962525401  6.8569831157212109
 28.1819049928151166 18.7649782683517365  3.6670002426874557
 29.7379002959621097 17.1689672773604443  4.3119980010564607
 11.3004865849892155  7.5286018614741073 35.2273617142743731
  9.3024729410794240  7.7135860429584842 34.3203881221924760
  5.6580040974480132  5.8140084075109169 11.6369876448996479
  5.7699885629098153  3.6979946657929164 10.8530127192764159
 20.1959936814995622  2.9240094447577665  3.7550020510100866
 18.3610009879468805  1.8419998145155234  4.7439883450772840
 14.0108949604003623 20.9819707297869940 10.4409785124839694
 15.6938830398875879 20.0989681825741044 11.8080078901598462
 31.9223825416493128 20.1025617879979386 23.2383668360841966
 34.1443844770831220 20.1965640386886101 22.5743552507123511
 10.7900054297494083  2.6799989521647714 15.9419862743289045
  8.8819960273442415  1.6419996632912646 14.8359949504779980
 24.0805002919082867  3.8886006959201409 42.1663756533313716
 24.4864729855711794  5.8475897016019145 41.0283774941754800
 13.9240150365428299  8.9950082282946173  4.3349985251673493
 15.0029870125659048 10.9719895714501039  4.0730000397663506
 19.0618967739330714 17.3869821843523376  5.0849868579444353
 19.6189040779360866 18.5459683701188283  3.2099979046512281
 20.1218901346091563 11.7559723937297971 23.6970182170151169
 18.7398878362003778 13.0799763896787784 22.4890036898990502
 32.4433822044187963 20.6875628955783988 31.6493916665499135
 33.5233938632435482 20.3365633206938448 29.5643943824148110
 27.6583921885194677 13.0565603716854763 31.3683748238084590
 29.4543810807736151 12.0685635742675732 30.1733623656697922
 11.3953923163987945 11.9215721813715483 42.3583758921226945
  9.7513903600467184 13.5745799971037044 42.3443771488682899
 28.2629006524231023 13.6789725918373168 12.5479932374658176
 28.6218801857944705 12.1019598061669935 10.9029823432557524
 14.3533749502231913 14.4775754234734144 33.8793597546141925
 15.5183909940022549 15.7765721242328762 35.3873732391111915
 28.3673668225303111 17.9355613263899336 39.1503622753502540
 29.5673744884750036 17.4755758280003306 37.2253765160519663
 19.2159095776060624 11.2139821419432160 10.9439818987419724
 20.4959072181252431 12.0409819280973878 12.6609798577781199
  9.6194867014308603  2.3445973343555200 26.2843846401410346
 11.4014777737202895  2.3875970740251478 27.7953881474690760
 24.9174945974357556  3.8356082669488525 30.1113873469900675
 24.0704942327101463  4.9705859068302916 31.8863736275978837
 24.8340115377105199  9.4489992113260239  3.4589988514124510
 22.8369887984090596  9.7390013887494309  4.6229830271726513
 38.7113827884356354 22.7215677426930576 33.4153625752883841
 37.2663962674573028 23.5605690331714683 35.0573834466674086
  6.3325062140376120  4.0466037732539410 24.0173583903223609
  5.8295068229739009  4.7686054174646806 21.8813948079309064
 24.4069075620846512 21.3309715905796864 12.0439931769308011
 23.4318996811292699 19.2739822108714556 11.5259943731413745
 15.7864892399785344  5.5935998354606049 23.2823564144014554
 13.7834758175614258  4.5015963290754186 22.8793828828545784
 15.1758996878846713 14.2669633313186441  7.3969993603573823
 14.7188912044655318 16.4009649099537462  8.0829830831997391
 11.4934899405346780  6.8426028307919982 45.2213762108266835
  9.2290098940616279  7.5559986073972460  0.5479986995275204
 18.9049905808702370  1.9879994895040931 16.5409875148137573
 18.9259946800557444  2.0140007839991143 14.1470212048046005
 27.8990047937795218  6.4020015088877305  0.6649991989736089
 29.0550070996910001  8.3480043285523564  0.5430017371295869
 28.8784783001315759  8.2605961250018431 33.5823961234405317
 28.5874933771160968  6.3636039311037518 34.8873598756842256
 19.9184877668984264  7.7485872493744887 33.3953837863718945
 19.4024785819174888  6.7275950203825694 35.4163673998970268
 27.5828817452590478 18.1589685286500178 15.0110018928462470
 29.2668974075976678 17.2489768117341562 16.3529785034681119
 28.8010042204633301  2.9580064607613958 15.2260117164237005
  0.7860004257491313  0.9240005540620757 16.2119943966469897
 28.9433745868231256 12.9645724927486992 23.9313725822418704
 28.3073912808429569 11.9835611603478025 21.9453631751646512
 36.7038931113651117 18.7219711031201648 15.4799824435571196
 11.2128989508083627 17.3719807196365217 15.5420027656130699
 11.1644875342661241  1.9135967261499749 38.4593951811228294
 10.0474805791085497  3.4506030707102280 37.0463828765756702
  6.9604945736014958 10.2796059740670671 27.4273888223701086
 32.8144882542011445  9.8335960368414899 25.6413938213389230
 14.9318956837750534 15.6959744842494615 18.3440165853066226
 14.1649074869079392 13.9969815059089289 19.8769922301051736
 38.1648933227889557 22.3059706974680552  6.9290154839235196
 36.4278852671656423 23.3779713989608489  8.0460155281978007
 18.6164828368249289  1.4805989172615439 26.7053889154265995
 20.7704981586448305  2.3965974486444268 27.1843815122838350
 19.3649037762609950 16.9899809722906880 16.5139867025819491
 19.6708959140990665 18.3789629976375650 14.7279917015507635
 34.7008929842664031 15.6059675874809827  7.6619788079141742
 32.7018931425969726 14.5649599129326646  8.2069784239354107
 28.8689004006920698 22.4909700797597374  8.9549824688337161
 28.7268958751856047 23.1589715733467862  6.6939815680533474
 23.6720123921549792  0.1260000768387023 19.5820219474855328
 37.7538946842006169 21.6499720177418027 18.5490143627377186
  1.0514884137119549  1.1465975451314800 26.6333565472242917
  2.2954860345980301  2.9475910354534212 27.4953891900881402
 36.8743960373015867 22.4425681308433518 44.7593778164600451
 24.2690022853899627  0.0089999901556163  0.8130007987724264
 23.6179882776311061  8.8019925656480957 15.1980142299148788
 24.2230119083334543 10.9950113915948133 15.5790156239912374
 14.6914857082204833  4.9555869766612819 31.3143731993448426
 15.9164854450278472  4.2345959730554945 29.5803864742232498
 25.1269056031369722 15.8559818679132043  7.6729875283375453
 23.2388989652702840 14.5209791120382192  7.9439923249326441
 23.9033738457683818 15.1215646942804103 35.3833865420031444
 23.3243853645189532 14.4475683681458733 33.3043693035301160
 23.7168946719574052 15.2249696240916990 18.3789907917545356
 24.3519127116088576 14.6359825480560914 20.5199830489072852
 19.8453745587157471 22.2455699797309130 33.8273967820808323
  6.3014998765085446  0.7225986158352830 34.9803677070800418
  5.5854931795485134  5.7816023862589763 42.4993781202943097
  6.5474729711876867  4.0185913906759323 41.3323767396773292
 14.2794878737833049  9.3375883026211159 26.5013878122725188
 15.8385007077897626 10.3126001524773514 27.8943760245269594
 25.4275024557111458  9.8275991556529831 38.4943693875707424
 23.3224874128083179 10.3126000999478968 38.1263700624717785
 25.1913740734170197 20.5575672718376481 42.9383768966175836
 23.7243826848704096 20.1625730150911444 41.1573743276467141
 15.8954986374288669  9.0976069622993538 38.9293724061107227
 14.8504835091104272 10.3546023557425588 37.2663760715381898
 18.7603809982649459 12.1245589560087392 41.0323777822964004
 20.2553870899548620 12.7795648934198667 42.6523766824910595
 13.5119968786950349  9.4590047289649117 15.0880176324336190
 15.4319924631999221  9.9530097042692596 16.2460172321941165
 18.1840180517777696  7.2940110655284514 19.4679933495199933
 20.4089910998645827  7.2499884219411372 18.9720119865773107
 23.3899927213709908  0.4590006784642475 14.1800020626984864
 22.3220052002670499  2.2290004842409110 15.2430004825091512
 11.3663964387412122 11.6165761251295905 30.7813789780239908
  9.8953851605336673 13.0205715384573821 31.8553861182580249
  6.2930022697853811  9.9670019019547400  5.1369951338540272
 31.8249956476260074  9.2559931927196857  3.9099984920984863
 34.1678990642406930 15.7299810592129443 18.9629966147079649
 32.3688998153167660 14.6739698714159683 20.0799966589822461
 23.5404981312619732  9.6656029086074700 26.1823614368758797
 25.3624783705619343 10.2805910077555485 27.3833539406766242
 19.3744886653919259  6.2186081214011102 45.2763762310956039
 19.6809984934998141  8.3879976398142944  0.3169999553779644
 37.9243858943882302 18.8285749747849600 37.2693660943692251
 10.6813864848255982 17.6205747168845832 39.2593621985544985
 14.7278974083450453 13.9059763346153336  0.8430006945105197
 15.2669025205153197 16.0589622634335427  0.0720002028051862
 15.7529978185495718  5.4899885696195847 11.1179921668332078
 13.9830080350689929  3.8019974168643738 11.0619971938155661
 37.4333842402655392 18.6065708987572371 25.9383574525125944
 10.4103877127938418 17.2275752398847182 27.8033615416851774
 10.2160153493288401  8.1080043953012080  8.5120060560776363
  9.7360010669315589  6.6600057155893104  6.7560018901092969
 28.0359046572159372 21.8509701602253372  0.5430017371295869
 14.9079875121020073  0.4219989187045128  0.0149999931724229
 27.3749061454976328 22.2919711995341103 19.0550077718267623
 29.5598990812884637 22.5679719116116182 19.9019996937829546
 18.5924943177680291  1.8245974875365147 37.7203612047176406
 20.3734961014361282  2.7535934296064970 38.7823629502512901
 32.0218931319027860 20.3489633113139696 12.0869860809710481
 34.1838932957088844 20.6949799735014217 11.3180065728792396
 10.5589009096851125 17.2739807826501810  4.3959995212581715
 38.0848880394098614 19.3279601692054968  3.2880012578403686
 14.5723860769823759 19.5405633302605644 30.8373739510416343
 15.7873910816398997 21.4385682230557464 30.4273783961794422
 29.6529980450355879  6.6459949139037766  8.0239980873510568
 27.3640149369499959  6.6870084513699126  8.4649811515531095
 33.0079936467550823 11.1639910613275770 15.8029955160618112
  6.0339973035448153  8.9109952319963348 15.4749990721720554
  6.8530136165057405  0.0269999064199895  0.5500011087567922
 18.9223950814972532 23.1295697328178171 44.6273773691449094
 11.0699858629226267  7.5509943855314292 18.4660185774882670
  9.4859860027106961  6.3679922216279561 19.7210127057526279
 27.9999917110083594  6.5619918002402287 20.0380004292190108
 28.4800135008730528  8.2980045571922911 18.4850006921277412
 34.0573831616059479 15.5995696962693913 35.6483659895599274
 33.0883874288016457 14.2975760076104486 34.0803708349372414
 24.0913949307002113 19.3965796407507938 30.3583813541843988
 24.7033861530379895 21.2425641677616319 31.6303642485342102
 28.7023716269678850 23.6925689420897001 33.7493843682164467
 28.9053968626469420 21.7615697632689624 35.1383858833628366
 23.3829998424173873  3.6600066949275223 10.9959901746515634
 25.1560173853357547  4.8460100969054558 11.9720061121047241
 27.4993723472035576 18.5815706782747903 27.2863594121727644
 29.4683709289411233 17.8415610766429005 26.3703704482215286
 22.5044873548968880  4.0445991699105557 23.8653655630778729
 24.7544938423790128  3.8366068271615261 23.1563677251117568
  1.0794899058141465  1.6125988382205303 36.8733692827614448
  1.7954924821878735  2.7666031692309638 38.7383733719340313
 20.0513705165852443 18.8775681265748361 37.8103790132824145
 18.5523882693876274 17.6345796023445764 38.9403811265340920
 18.7568825124321990 23.6199713056075709 18.3840194665158272
 19.9438822689835753 22.3059720837477755 19.7360081232840514
 20.1413881945387914 17.6105617568394415 26.0513893762011151
 17.9463799456673279 18.2775680407749803 25.9623682419133601
 33.9263662227501115 21.0655586603387128 41.0783743001805561
 32.4773947403235539 20.4665647629676535 42.7733774700580724
  6.1414949422485945  3.6866045170426887 30.2923743350203942
  6.5094952255993119  5.9396084052036180 30.9103576901447248
 32.1298962665848578 15.3969691394452877  0.9509994131001310
 34.1863915961371845 14.8835803131595199 44.9313761616130023
 28.0573779090426179 12.4645666529449883 41.1703763966241070
 29.6903895301271916 13.4075588172323830 42.5593779117704969
 22.7368981789172473 15.9809718051442768  1.0099979999616817
 24.9558914427498486 15.2239773149227968  1.1379981591558961
 23.8603887397357788 21.0625782719143189 23.6413856710072992
 24.2273906156331407 19.1275758728728711 22.4193724006368207
 27.5760036407084499  2.6370046791831219  4.3190019030212898
  1.9020003708680326  1.2250004348955390  3.2510019904750695
 10.6100087364167113  1.6590003253408292  5.0750201151743051
 10.5510043928274388  2.6759915237151066  2.9919980582427330
  7.2394874053804079 10.1225944675662110 38.7513754409114313
 32.5704861086006119 10.1125901678353518 37.6413974199524688
 11.0139054022578957 11.8719820844147854 11.4459886107229618
  9.1858992406181788 13.3649781444787603 11.7770203808199838
 19.1918887456398153 22.7329706513745080  8.7550133661639133
  5.5560075644479463  0.1349999608780515  6.6659840815445257
 14.6863700746520820 19.6035630110169059 42.0083755983990699
 15.6343946038394339 21.5365695403607837 41.1063763170269993
 10.9483972592052794 12.4545707912666401 23.9383946055571926
 10.0163806982368477 13.0455628134658213 21.8983835740163570
 15.7839057867838104 20.3119730172681763 22.0959969011223087
 14.0718973413118675 19.5289758502980426 23.4550075812058516
 14.2504951560379727  3.9776066410562794 41.3233749588208568
 16.0664994169665896  5.3166025388099811 41.7893745473759353
 24.0849931964671420  4.6569972212581208  2.3550008761155690
 23.4360016813918897  4.6180024891620297  6.2979847564455653
 29.1054830069188526  7.4395878258153099 28.8123583370322258
 24.1804954407230710  4.6176078990653338 36.2603692990221802
 19.5148919499357980 17.6219595045952708  9.7770122304883564
  1.6129993703546990  1.7160007026303821 21.1630191710856224
 14.7200088454306250  9.7220098457726767 21.2269875383193707
 33.2323697000903309 15.0675654365106482 24.7033874165409451
 28.6333858458072754 22.9415679298545250 28.7493866440754928
 10.2709018687867850 12.3589753844213117 16.8829827019579248
 38.0333837473092728 22.8335688202422382 39.8573667647623395
 19.4804813593966273  1.9435982933486826 43.5023767486287909
 28.7348905448981320 12.3789725572249552  2.1640018419388833
 28.4939014499972814 12.4349684547348591  6.1780214161941736
 28.8184899958983998  6.9616003500936445 24.9123718910800953
  6.1354983050286958  4.8905994767242111 36.5233553980249468
 15.1735026917386460  4.4156065549350654 36.3453584328256625
 28.5369983286939615  7.7150113543463430 13.7369803465661793
 10.4089991983429346  7.0019891610737792 13.8480189217006799
 23.2809016277346537 20.1839613915888307 17.3409998356216519
 19.2100033366606517  2.0099989433281400 21.1130042437300602
 28.8333762460135432 22.6785680830837002 39.9743853855589180
 14.8220024900761622  4.2450084338948892 17.8520219194719907
 24.3075046999986526 10.1486020010141722 43.6923745781908366
 33.4298990150208297 20.6109721147142189  2.2519991199238913
 10.4118885999892630 17.4689612768848157 20.9770035082940041
 10.6914994657528979  2.4655974681732564 32.6243656263498352
 19.0968956179947185 23.0179704750701539 13.6020215887833640
 19.6293707831013613 22.7605689757336798 24.7203761826263957
 19.6294777314443465  2.0305967403979506 32.5943747912869881
 17.7473751046820318 13.5715634485096359 32.0643705927971752
 33.4243755025366340 15.3345691505100810 40.0333703814076003
 19.8293915254273898 23.0495695164723173 28.7513799926295164
 24.2023877457146881 20.3655590277598009 36.3623925022873422
 10.4044923372222424  7.4565908068098343 28.6663908588260377
 28.8753736100570890 17.7305664463945831 44.0063768091638039
  5.6099898525881988  4.6069919462210631  2.0100020751274963
  5.8019926215745583  4.5959967488330271  6.0779915614830449
 37.6668882121255066 18.1599604966068497  9.6800177019844931
 24.5844987870176155  9.8926091272828014 32.2923824853520287
 33.4093858846584695 20.2665705067389972 36.2173763949819403
  5.5939842124991639  4.5179916734619958 17.2109791458476771
 19.8163906195882937 12.4215626745584622 36.1223752150321005
 14.8353962869915126 15.1075688658618681 25.1263850403805371
 14.8368937874685756 20.1569810359203245 17.1969804025932653
 28.6374890232430630  2.3175974051529433 43.3083741006081908
 10.2778871066139672 12.3089617743693989  2.0969981484978684
 10.1719008445276202 12.5739707936112577  6.0649894925056467
 15.1928892467064038 14.9259670473973518 13.3269847917039854
  5.8270003110991508  9.7280007157480011  9.8959788964627329
 19.1600110085998452  7.0050110710570301 13.7960106457910889
 15.1724802428910355  9.6186007858918501 32.5303611206770142
 28.4603773720038724 22.8655689160900657 24.7923632474524780
 28.7504829600359173  7.3206094147382457 39.9003596688025866
  6.3544940006603285  9.9196074286888383 43.5663768282258914
 14.9118815603467194 20.6419705965011673  1.9160020997922957
 15.1448916839267653 20.2599728869147455  5.8049934163339199
 32.7769115506253002 20.0979819801831212  6.3160155001842568
 19.2724719325327420  7.4405902902812278 24.7853865275133884
 28.7318863517052634 17.7529597001001633  9.8099930883822442
 37.9243795624171369 22.7825688971356755 24.6523758149083712
 18.9729116892010339 17.4689811492508760 20.9139865119610420
 19.6354775981970562  7.4205886920939976 39.9833554540520382
 19.9495007847328196  7.4476037029180295 28.7643820616069128
 18.6790069851695435  1.9199994236411704 10.0750178393152634
 28.1208830097073132 22.9259714714646137 13.8250048065769242
 37.7763826485282408 17.8585673423903195 43.9783747923173607
 14.7039876325681842  4.5739918560889352  2.2259995123067187
 14.4409930424631270  4.4279955267359963  6.0219965884654005
  9.9999964676245323  2.0730004345932205  9.9800166593654254
 24.2913769679215186 15.3345584827436259 40.1003740748486166
 19.8943751767988601 17.8145589482445352 32.3663628987321346
 33.0914909288583488 10.2455985272003485 32.7323688752770678
 10.0889957381867230  1.5780001433872088 20.9630047650395923
 29.0183887422214326 17.9275740681117561 32.3143546228225418
 10.7143904668071350 17.8405805731991656 32.8113779634184652
 19.9023879026668844 23.2255681671878165 40.0403924047229225
 15.0303727943645811 15.0295587936080288 28.7673720844379552
 10.6904970995510524  2.2145965927145226 43.4463772452735171
 19.3678862610146112 12.7889701556572923  2.0529995095053644
 19.4549026321028258 12.2699693179999656  6.3070001283149111
 28.2899987720494650  2.1629999987503412  9.8600080157378081
 23.9679874013466652  4.6799914134482439 17.7269846010830783
 28.4828956107180744 12.7009600954756898 17.4679851991883623
 28.4873928048622922 12.6195728783809695 35.7923854225883176
 33.5354037263033504 15.5015799796900282 28.8553965444486948
  1.6454898245098808  2.0935974343295287 32.6333809982191809
 10.7163689274496434 12.6245632685596618 36.3473970847559116
 14.9903693679327965 15.1035662187325261 39.9583932937504827
 15.0814788562341633  9.9146010064835579 43.8843748169821595
 23.8978911770733475 20.7099654598916629  2.1740002970723733
 23.9429069243340216 20.4869803553468230  6.2470184581892143
 33.0138994894581046 15.4139599963368923 13.4670175276243214
 14.6059910984159131  9.9459984147110081  9.6690089815611220
 10.3454730634178951  7.0455901410330384 24.8333628029386944
 32.9778876917615378 20.4009623164951677 17.4190122494860411
 28.3728976269253828 17.5609656341027396 21.0950188033675978
 23.9629887260737071  9.8060004825811724 10.1079986972091493
 10.7184922644517027  7.3005907065364708 39.8963729716945323
 37.8973756402565698 23.1555697061026393 28.7623887130528857
 15.3603717587173172 20.3385668712665471 36.4383662642214716
 19.5203742063733046 18.0895698313038835 43.9303758652039349
 23.8368820439387825 15.2269620100110732 13.5120037802185937
 24.1773807568348182 15.0995738613664336 28.6213593028555415
 23.9323722960671041 15.2035661851877606 24.5283804741726996
 19.4038939055560640 11.9209746243433514 17.3790093682768365
 33.1139954365843039  9.9819921089033006 21.0430105274580050
 24.1240031712401404  9.8789994882684589 21.2919978832063599
