C  H  I  N  Pb
 1.0000000000000000
     8.6065994650000004   -0.1272474360000000    0.2499556470000000
    -4.4183355300000002    7.4506990699999998   -0.3545552250000000
     0.9749992860000000   -0.9881667230000000   35.1414798579999967
 C   H   I   N   Pb 
   9  45  27  18   9
Cartesian
  4.2381260950000001  2.5659749181999998  5.7788234898999997
  0.2217555666000000  4.7626427694000002 17.2911175025999988
 -3.7955261312999999  6.9592096474999998 28.8033671262000013
  0.0698223531000000  5.0256404782999997  9.4292959468999999
  9.0776229744000005 -0.3556192460000000 21.5460096593000010
  5.0610089269999996  1.8411033664000001 33.0582979181000027
  0.1498096526000000 -0.0493058826000000 13.3825863790999993
  4.7393245629000003  2.0201404330999999 25.1448451927000001
 -0.2516591437000000  5.2049624755000004  1.5157225052000001
  4.5972234131000000  2.1687650625999999  3.7894922570000000
  5.5039905973999996  0.9415382605000000  5.8273389972000000
  5.0626753720000002  1.6152698563000001  7.3664312165999997
  3.5139238457999999  3.4938742513999999  4.1462834520999996
  3.7025931879999998  3.2561126779000000  6.4308264929999996
  0.5806608402000000  4.3653407223000000 15.3017912266000007
  1.4873851915000000  3.1379555115000000 17.3395615511000010
  1.0464115078000000  3.8117597929000002 18.8786892653000002
 -0.5024556997000000  5.6906376311000004 15.6585811450999994
 -0.3134737727000000  5.4528078520000003 17.9431330514000003
 -3.4362379779999999  6.5621668426999999 26.8141116237000006
 -2.5294475839000001  5.3348268100000000 28.8519412626000005
 -2.9710665699000001  6.0083977432999998 30.3910068224000014
 -4.5197868348999997  7.8871668572999996 27.1708143409999998
 -4.3311709895000003  7.6491634084999998 29.4554040264000001
 -0.0636868485000000  4.1336456514000002  7.5690648536999996
  1.0761672202000001  3.2412585923999999  9.6741430873999992
  0.9633987199000000  4.2692191788000002 11.0778455806000000
 -0.8010957679000000  5.7019797487000003  7.7420267506000000
 -0.2313918401000000  5.9233470870999998  9.9723231630000004
  8.9444399707999995 -1.2477234336000000 19.6857752212000001
 10.0842829202999997 -2.1398056288000000 21.7909249251999988
  9.9713288951999992 -1.1118605395000001 23.1946172411000013
  8.2067345106000005  0.3204394037000000 19.8586822243000007
  8.7761795107000005  0.5419986995000000 22.0890129675000004
  4.9275795995999996  0.9488975253000000 31.1981725915000006
  6.0676238277000003  0.0568493911000000 33.3032993465999994
  5.9547928460000001  1.0848894618000000 34.7069133322999974
  4.1899331433000002  2.5170862616999998 31.3711009473999987
  4.7597314204999996  2.7387477563000000 33.6013202950000007
  0.3740482550000000 -0.9684346029999999 11.5433425867999997
  1.2037810462000000 -1.7679331106000000 13.8202571749000001
  0.7782675738000000 -0.7455823812000000 15.1709821377999994
 -0.4867857904000000  0.5338362865000000 11.5466123334000006
 -0.2940708448000000  0.8308398691000000 13.8496223070000006
  4.9638108317000000  1.1009746770000000 23.3055772748999992
  5.7934025571000003  0.3016775980000000 25.5826475807000016
  5.3676316944000000  1.3239339278000000 26.9333650762000012
  4.1028469203000002  2.6030863700000002 23.3089209068000009
  4.2952441045000000  2.9001645981999999 25.6118209882000016
 -0.0277103889000000  4.2857054704999999 -0.3235371583000000
  0.8021269586999999  3.4863329838000001  1.9533586113999999
  0.3768160435000000  4.5087891880999997  3.3040893918999998
 -0.8884225178000000  5.7879934095000003 -0.3202329474000000
 -0.6955323722000000  6.0851645637000003  1.9826822279000000
  6.7420505631000003  0.9602950298000000  9.5087974902999992
  4.5733708763000003  4.6010071524000002  9.3808392834000003
  2.4812461993000001  0.9591499506000000  9.1300667635000003
  2.7251649975999999  3.1569783510999998 21.0210797201000013
  4.9748806264000001 -0.6529189651000000 21.2476964003000006
  7.0709838225999997  3.0287739012000001 20.8922097885999989
 -1.2914984004000001  5.3535233989000002 32.5334214748000008
  0.9581613925000000  1.5436256682000000 32.7600349561000002
  3.0542395192999998  5.2253617627000004 32.4046386764999994
  0.1743944587000000  2.3101626454000002  5.5792555646000004
  2.1129512199999998  5.8212047559000002  5.2816190536000001
 -2.0219862009999998  5.9429323692000002  4.9376498890000002
  4.7643482910000001  4.3795540481000002 17.3414110743999998
  2.5146868728000000  0.5669973791000000 17.1483860258999989
  6.9863009370000002  0.5616599107000000 17.0545845034999992
  0.7474639860000000  6.5762039450999996 28.8538085909000017
 -1.5022202430000000  2.7637844221000001 28.6608024796000009
  2.9694533440000002  2.7582930932999998 28.5668205119000014
  2.2078095694000002  1.2461829419999999  1.4236630468000000
  6.3501311097000004  1.1184492941999999  1.9775347068000000
  4.2300834961999998  4.7266365156000001  1.3026962823999999
  6.7978893271000000  3.3154789660000001 13.1859872305000003
  2.3335599802000000  3.3149138487999998 13.4897817478000004
  4.6318866271000001 -0.5275467892000000 13.1696128746000003
  2.7809109135000001  5.5122707018000003 24.6983018632000011
 -1.6833459242000000  5.5116389141999997 25.0020962361000016
  0.6149498404000000  1.6691971746000001 24.6818637695000014
  4.9827748077000003  1.6497402972999999  6.3490067628000002
  4.0831164413999996  2.7195827978999998  4.4823906659999997
  0.9664327033000000  3.8461968941000002 17.8611244593000009
  0.0668129649000000  4.9160096541999998 15.9946805012999995
 -3.0507677173999999  6.0429900168000001 29.3736322377999990
 -3.9502551021999999  7.1126206893999999 27.5069947343999992
  0.7372644229000000  4.1121487090000004 10.0963100498999996
 -0.2631148907000000  4.9456872015000002  8.1608805816000007
  9.7452557993000006 -1.2690428309999999 22.2130323869000001
  8.7448395110000003 -0.4355533940000000 20.2775204566000014
  5.7287634065999997  0.9276705194000000 33.7254010718000004
  4.7281238714000002  1.7610741582000000 31.7899275770000003
  0.7472915900000000 -0.9176138153000000 14.1676829276999996
  0.0448335441000000 -0.1579293924000000 12.0784500468000005
  5.3368906326000003  1.1517931620999999 25.9299352507999998
  4.6343582220000004  1.9116854109000001 23.8406209916999998
  0.3457188381000000  4.3366875131000002  2.3007151059000002
 -0.3568543456000000  5.0964049402000002  0.2114992123000000
  0.2287463299000000 -0.3533321092000000  7.3637559918999997
  4.8185290783000001  1.7161546748000001 19.1260017803999993
  0.8017661609000000  3.9127062149000000 30.6383375246999989
  0.1349666085000000 -0.1316563760000000  3.4733970200000002
  4.7249631314000000  1.9376577385000000 15.2356382708000009
  0.7080335524000000  4.1343535473999999 26.7479610900999987
  0.8521965183000000 -0.9515680423000000 34.7437580141000026
  4.4673637425999999  2.1058543973999999 11.3645599209999997
  0.4504355144000000  4.3025986871999997 22.8768417849999999
