
###
dimension       3
boundary        p p p
units           metal
atom_style      full
variable        seed world 1428
variable        freq equal 500
read_data       data.CPI
mass            1 132.904999 # Cs
mass            2 126.900002 # I
mass            3 204.199997 # Pb
pair_style      lj/cut/coul/long 8.0 10.0
pair_modify     mix arithmetic
neigh_modify    every 1
kspace_style    pppm 1e-4
dielectric 1.0
variable ACs  equal "0.07728"
variable rCs  equal "3.584"
variable APb  equal "0.001086"
variable rPb  equal "3.210"
variable AI   equal "0.06389"
variable rI   equal "4.014"
pair_coeff      1 1 ${ACs}    ${rCs}
pair_coeff      2 2 ${AI}     ${rI}
pair_coeff      3 3 ${APb}    ${rPb}
thermo          ${freq}
thermo_style    custom step temp pe ke etotal press lx ly lz xy xz yz
# Minimization

min_style cg
fix 1 all box/relax aniso 0.0 vmax 0.01
minimize        1.0e-4 1.0e-6 1000 10000
unfix 1
write_data      data.min

