SYSTEM=hex-FASnI3
ISMEAR=0
SIGMA=0.05
EDIFF=5E-6
EDIFFG=-0.01
ALGO=ALL
ISTART=0
IBRION=2
ISIF=3
NSW=1000
ISYM=0

GGA = MK
PARAM1 = 0.1234
PARAM2 = 1.0
LUSE_VDW = .TRUE.
AGGAC = 0.0


ENCUT=1000
PREC=Accurate  #default (Normal) usually safe, structures/energies change little with Accurate
LASPH=.TRUE.
LREAL=.FALSE.
ISPIN=1
NELM=200
NELMIN=8
NCORE=4
KPAR=2

LWAVE=.FALSE.
LCHARG=.FALSE.
