 C  H  I  N Sn                          
   1.0000000000000000     
     8.8378999999999994    0.0000000000000000    0.0000000000000000
     0.0000000000000000    8.8378999999999994    0.0000000000000000
     0.0000000000000000    0.0000000000000000   12.4065999999999992
   C    H    I    N    Sn
     4    20    12     8     4
Selective dynamics
Direct
  0.5444817470960844  0.0446776803768944  0.5041389783841949   T   T   T
  0.0040722516453637  0.5019792441967539  0.4585400808134567   T   T   T
  0.5494927359282215 -0.0011211624843168  0.0240746468199063   T   T   T
  0.0020488263428183  0.5032408339199264  0.0585806316753349   T   T   T
  0.3177463235657212  0.0254160479600143  0.5345870737959272   T   T   T
  0.5163165818583417  0.8204306974122901  0.5396739656428391   T   T   T
  0.6990483293404227  0.8790661805781332  0.5100498214462453   T   T   T
  0.3846543509351629  0.2050064621504710  0.5032372662555228   T   T   T
  0.6300584102013917  0.1267965735434101  0.4818846420291000   T   T   T
 -0.0770728226957698  0.3907597172342486  0.5911461337300684   T   T   T
  0.1156627556706004  0.6014054298780940  0.5842398287974480   T   T   T
  0.1590641181798443  0.6668346549761763  0.4555658855276034   T   T   T
  0.8520107940361309  0.3349217256808023  0.4668417374115196   T   T   T
 -0.0059372422631853  0.5056897184864072  0.3714180859762205   T   T   T
  0.3245642753308269 -0.0206913445333373 -0.0104927803066663   T   T   T
  0.5395911932902594  0.8576224547638203  0.8948115320246368   T   T   T
  0.7190620522727332  0.8974675329102122  0.9456182288402400   T   T   T
  0.3704909378388587  0.0966257652451416  0.0963959846311509   T   T   T
  0.6280929081872645  0.0537768202701909  0.0789353427158546   T   T   T
  0.8697363832722362  0.5696767184955539 -0.0679481659893076   T   T   T
  0.1038369151569591  0.4104004687114716  0.9256733556936690   T   T   T
  0.1901394800488869  0.3785751855114980  0.0491985325909850   T   T   T
  0.8133666457581370  0.6270357020236814  0.0604366656921257   T   T   T
  0.0129402875993541  0.5129133037112885  0.1454537672641257   T   T   T
  0.0000000000000000  0.0000000000000000  0.0083500000000001   F   F   F
  0.5000000000000000  0.5000000000000000  0.0083500000000001   F   F   F
  0.6987000000000023  0.1987000000000023  0.7503999999999991   F   F   F
  0.3012999999999977  0.8012999999999977  0.7503999999999991   F   F   F
  0.8012999999999977  0.6987000000000023  0.7503999999999991   F   F   F
  0.1987000000000023  0.3012999999999977  0.7503999999999991   F   F   F
  0.0000000000000000  0.0000000000000000  0.5097000000000023   F   F   F
  0.5000000000000000  0.5000000000000000  0.5097000000000023   F   F   F
  0.7340299999999971  0.2340299999999971  0.2490000000000023   F   F   F
  0.2659700000000029  0.7659700000000029  0.2490000000000023   F   F   F
  0.7659700000000029  0.7340299999999971  0.2490000000000023   F   F   F
  0.2340299999999971  0.2659700000000029  0.2490000000000023   F   F   F
  0.5878225086297161  0.9044919946966963  0.5173553243468249   T   T   T
  0.4053640653687701  0.0931313871802592  0.5131850062201379   T   T   T
  0.0983506060672547  0.5966507428986572  0.5035905967650380   T   T   T
  0.9200455026641037  0.4040325829733663  0.5100070984957276   T   T   T
  0.6052470289954183  0.9072988003558253  0.9518652025223004   T   T   T
  0.4056456703755685  0.0291687715652856  0.0351001258713691   T   T   T
  0.1042900524420391  0.4255186701452692  0.0069786107044105   T   T   T
  0.8875703515160809  0.5704824612764662  0.0128891548303920   T   T   T
  0.0000000000000000  0.0000000000000000  0.2537999999999982   F   F   F
  0.5000000000000000  0.5000000000000000  0.2537999999999982   F   F   F
  0.0000000000000000  0.0000000000000000  0.7537000000000020   F   F   F
  0.5000000000000000  0.5000000000000000  0.7537000000000020   F   F   F

  0.00000000E+00  0.00000000E+00  0.00000000E+00
  0.00000000E+00  0.00000000E+00  0.00000000E+00
  0.00000000E+00  0.00000000E+00  0.00000000E+00
  0.00000000E+00  0.00000000E+00  0.00000000E+00
  0.00000000E+00  0.00000000E+00  0.00000000E+00
  0.00000000E+00  0.00000000E+00  0.00000000E+00
  0.00000000E+00  0.00000000E+00  0.00000000E+00
  0.00000000E+00  0.00000000E+00  0.00000000E+00
  0.00000000E+00  0.00000000E+00  0.00000000E+00
  0.00000000E+00  0.00000000E+00  0.00000000E+00
  0.00000000E+00  0.00000000E+00  0.00000000E+00
  0.00000000E+00  0.00000000E+00  0.00000000E+00
  0.00000000E+00  0.00000000E+00  0.00000000E+00
  0.00000000E+00  0.00000000E+00  0.00000000E+00
  0.00000000E+00  0.00000000E+00  0.00000000E+00
  0.00000000E+00  0.00000000E+00  0.00000000E+00
  0.00000000E+00  0.00000000E+00  0.00000000E+00
  0.00000000E+00  0.00000000E+00  0.00000000E+00
  0.00000000E+00  0.00000000E+00  0.00000000E+00
  0.00000000E+00  0.00000000E+00  0.00000000E+00
  0.00000000E+00  0.00000000E+00  0.00000000E+00
  0.00000000E+00  0.00000000E+00  0.00000000E+00
  0.00000000E+00  0.00000000E+00  0.00000000E+00
  0.00000000E+00  0.00000000E+00  0.00000000E+00
  0.00000000E+00  0.00000000E+00  0.00000000E+00
  0.00000000E+00  0.00000000E+00  0.00000000E+00
  0.00000000E+00  0.00000000E+00  0.00000000E+00
  0.00000000E+00  0.00000000E+00  0.00000000E+00
  0.00000000E+00  0.00000000E+00  0.00000000E+00
  0.00000000E+00  0.00000000E+00  0.00000000E+00
  0.00000000E+00  0.00000000E+00  0.00000000E+00
  0.00000000E+00  0.00000000E+00  0.00000000E+00
  0.00000000E+00  0.00000000E+00  0.00000000E+00
  0.00000000E+00  0.00000000E+00  0.00000000E+00
  0.00000000E+00  0.00000000E+00  0.00000000E+00
  0.00000000E+00  0.00000000E+00  0.00000000E+00
  0.00000000E+00  0.00000000E+00  0.00000000E+00
  0.00000000E+00  0.00000000E+00  0.00000000E+00
  0.00000000E+00  0.00000000E+00  0.00000000E+00
  0.00000000E+00  0.00000000E+00  0.00000000E+00
  0.00000000E+00  0.00000000E+00  0.00000000E+00
  0.00000000E+00  0.00000000E+00  0.00000000E+00
  0.00000000E+00  0.00000000E+00  0.00000000E+00
  0.00000000E+00  0.00000000E+00  0.00000000E+00
  0.00000000E+00  0.00000000E+00  0.00000000E+00
  0.00000000E+00  0.00000000E+00  0.00000000E+00
  0.00000000E+00  0.00000000E+00  0.00000000E+00
  0.00000000E+00  0.00000000E+00  0.00000000E+00
