 C  H  I  N Sn                          
   1.0000000000000000     
     8.8288321361516182    0.0000022968515419    0.0000010592941609
     0.0000022643835116    8.8288304015399994   -0.0000023378609008
     0.0000014288227807   -0.0000032634888515   12.3910880409031954
   C    H    I    N    Sn
     4    20    12     8     4
Direct
  0.5000011609836678 -0.0000011188376003  0.4557725214005137
  0.0000001025257112  0.4999997920606684  0.4557726672901002
  0.4999985804503826  0.0000012813194466  0.0315999618322011
 -0.0000010543995584  0.4999992475132601  0.0315999144948435
  0.4999992454686951  0.0000007852089501  0.3674756537200562
  0.0000005205811495  0.4999994410858571  0.3674754500478662
  0.3985344493409975  0.1014655425440016  0.5866524960519034
  0.6014662477954530  0.8985338342560450  0.5866510448918181
  0.8985336744374870  0.3985345226397156  0.5866522230783513
  0.1014655032380126  0.6014662502006651  0.5866521642571781
  0.3383112998981739  0.1616886577433476  0.4590331078734097
  0.6616871026168306  0.8383129222606313  0.4590337836628661
  0.8383120641652795  0.3383115985179620  0.4590332345826393
  0.1616884966283437  0.6616879230933272  0.4590331644413014
  0.5000007858939646 -0.0000009202239188  0.1198879318817641
 -0.0000002510625756  0.5000008224784378  0.1198882300310014
  0.3987643473540201  0.1012355403038111  0.9006392787619426
  0.6012350579240054  0.8987648610781166  0.9006374544073412
  0.8987652348520601  0.3987643908658082  0.9006388485914717
  0.1012360307557020  0.6012351360606171  0.9006372914819029
  0.3383262595450269  0.1616736300192911  0.0282241529516260
  0.6616757367029968  0.8383241780797809  0.0282250943301870
  0.8383255682105233  0.3383260411832720  0.0282246333123447
  0.1616756891810061  0.6616761235766849  0.0282252991282397
 -0.0000001707439753 -0.0000006183431134 -0.0067045840162610
  0.5000000883043966  0.5000004946418989 -0.0067045752904987
  0.6917967019625904  0.1917964098839598  0.7442512380830553
  0.3082034328653112  0.8082032193016601  0.7442514011482790
  0.8082034356422836  0.6917966596585381  0.7442512486324490
  0.1917964842154391  0.3082036531162849  0.7442513992286314
  0.0000005439737303  0.0000001502878435  0.4934983470330266
  0.4999998208732678  0.4999995154602081  0.4934983436278760
  0.7451099588655128  0.2451098910466572  0.2433076914509076
  0.2548900444861121  0.7548899487608821  0.2433074708660193
  0.7548900654442601  0.7451099330565476  0.2433081801069560
  0.2451098241586929  0.2548902027873400  0.2433068582352160
  0.4065785407124721  0.0934214842425905  0.5045381881643922
  0.5934220921128568  0.9065779895452263  0.5045388414131586
  0.9065779084233486  0.4065780823133873  0.5045385607055103
  0.0934218969192532  0.5934219802036438  0.5045386655330951
  0.4066231506426631  0.0933766850570796  0.9827619273914397
  0.5933759845582798  0.9066238992309614  0.9827627599257267
  0.9066231009601405  0.4066229983501017  0.9827620644012184
  0.0933763374430854  0.5933761637943911  0.9827626580590546
 -0.0000001927798633  0.0000001252307602  0.2481118964648623
  0.4999997774108599  0.5000001644789250  0.2481118995519088
 -0.0000004253075731  0.0000001184038010  0.7481219627529191
  0.4999997457695000  0.5000003664622478  0.7481219540282193

  0.00000000E+00  0.00000000E+00  0.00000000E+00
  0.00000000E+00  0.00000000E+00  0.00000000E+00
  0.00000000E+00  0.00000000E+00  0.00000000E+00
  0.00000000E+00  0.00000000E+00  0.00000000E+00
  0.00000000E+00  0.00000000E+00  0.00000000E+00
  0.00000000E+00  0.00000000E+00  0.00000000E+00
  0.00000000E+00  0.00000000E+00  0.00000000E+00
  0.00000000E+00  0.00000000E+00  0.00000000E+00
  0.00000000E+00  0.00000000E+00  0.00000000E+00
  0.00000000E+00  0.00000000E+00  0.00000000E+00
  0.00000000E+00  0.00000000E+00  0.00000000E+00
  0.00000000E+00  0.00000000E+00  0.00000000E+00
  0.00000000E+00  0.00000000E+00  0.00000000E+00
  0.00000000E+00  0.00000000E+00  0.00000000E+00
  0.00000000E+00  0.00000000E+00  0.00000000E+00
  0.00000000E+00  0.00000000E+00  0.00000000E+00
  0.00000000E+00  0.00000000E+00  0.00000000E+00
  0.00000000E+00  0.00000000E+00  0.00000000E+00
  0.00000000E+00  0.00000000E+00  0.00000000E+00
  0.00000000E+00  0.00000000E+00  0.00000000E+00
  0.00000000E+00  0.00000000E+00  0.00000000E+00
  0.00000000E+00  0.00000000E+00  0.00000000E+00
  0.00000000E+00  0.00000000E+00  0.00000000E+00
  0.00000000E+00  0.00000000E+00  0.00000000E+00
  0.00000000E+00  0.00000000E+00  0.00000000E+00
  0.00000000E+00  0.00000000E+00  0.00000000E+00
  0.00000000E+00  0.00000000E+00  0.00000000E+00
  0.00000000E+00  0.00000000E+00  0.00000000E+00
  0.00000000E+00  0.00000000E+00  0.00000000E+00
  0.00000000E+00  0.00000000E+00  0.00000000E+00
  0.00000000E+00  0.00000000E+00  0.00000000E+00
  0.00000000E+00  0.00000000E+00  0.00000000E+00
  0.00000000E+00  0.00000000E+00  0.00000000E+00
  0.00000000E+00  0.00000000E+00  0.00000000E+00
  0.00000000E+00  0.00000000E+00  0.00000000E+00
  0.00000000E+00  0.00000000E+00  0.00000000E+00
  0.00000000E+00  0.00000000E+00  0.00000000E+00
  0.00000000E+00  0.00000000E+00  0.00000000E+00
  0.00000000E+00  0.00000000E+00  0.00000000E+00
  0.00000000E+00  0.00000000E+00  0.00000000E+00
  0.00000000E+00  0.00000000E+00  0.00000000E+00
  0.00000000E+00  0.00000000E+00  0.00000000E+00
  0.00000000E+00  0.00000000E+00  0.00000000E+00
  0.00000000E+00  0.00000000E+00  0.00000000E+00
  0.00000000E+00  0.00000000E+00  0.00000000E+00
  0.00000000E+00  0.00000000E+00  0.00000000E+00
  0.00000000E+00  0.00000000E+00  0.00000000E+00
  0.00000000E+00  0.00000000E+00  0.00000000E+00
