Br C  H  N  Pb
 1.0000000000000000
     8.3743309999999997    0.0000000000000000    0.0000000000000000
     0.0000000000000000   11.8609399999999994    0.0000000000000000
     0.0000000000000000    0.0000000000000000    8.3807250000000000
 Br  C   H   N   Pb 
  12   4  20   8   4
Direct
  0.2689000000000000  0.0045000000000000  0.2250000000000000
  0.2311000000000000  0.5044999999999999  0.7250000000000000
  0.2689000000000000  0.4954999999999999  0.2250000000000000
  0.2311000000000000  0.9954999999999999  0.7250000000000000
  0.7311000000000001  0.9954999999999999  0.7750000000000000
  0.7688999999999998  0.4954999999999999  0.2750000000000000
  0.7311000000000001  0.5044999999999999  0.7750000000000000
  0.7688999999999998  0.0045000000000000  0.2750000000000000
  0.0150000000000000  0.2499999999999999  0.9983000000000000
  0.4849999999999999  0.7499999999999999  0.4983000000000001
  0.9849999999999999  0.7499999999999999  0.0017000000000000
  0.5150000000000000  0.2500000000000000  0.5017000000000001
  0.4750684377323472  0.2742475817593892  0.0276488208473975
 -0.0249315622676527  0.7742475817593891  0.5276488208473975
  0.4750684377323474  0.7742475817593891  0.0276488208473975
 -0.0249315622676527  0.2742475817593892  0.5276488208473975
  0.5112504324492982  0.2233241304983592 -0.2046699821201262
  0.6295882435532538  0.1401098152754510  0.0482914263499047
  0.5709566943584584  0.2058718880959864  0.2264383050507331
  0.3839566820589687  0.3389136200329155 -0.1763908057958821
  0.4102274372989990  0.3373117233872870  0.0994803151393591
  0.0112504324492983  0.7233241304983592  0.2953300178798738
  0.1295882435532539  0.6401098152754510  0.5482914263499048
  0.0709566943584586  0.7058718880959864  0.7264383050507331
 -0.1160433179410312  0.8389136200329155  0.3236091942041179
 -0.0897725627010008  0.8373117233872870  0.5994803151393592
  0.5112504324492984  0.7233241304983592 -0.2046699821201262
  0.6295882435532540  0.6401098152754510  0.0482914263499047
  0.5709566943584586  0.7058718880959864  0.2264383050507331
  0.3839566820589688  0.8389136200329155 -0.1763908057958821
  0.4102274372989992  0.8373117233872870  0.0994803151393591
  0.0112504324492983  0.2233241304983592  0.2953300178798738
  0.1295882435532539  0.1401098152754510  0.5482914263499048
  0.0709566943584586  0.2058718880959864  0.7264383050507331
 -0.1160433179410312  0.3389136200329155  0.3236091942041179
 -0.0897725627010008  0.3373117233872870  0.5994803151393592
  0.5662996059295440  0.2027524051544994  0.1037758862265860
  0.4546488961594142  0.2767768922524866 -0.1269917382927724
  0.0662996059295441  0.7027524051544994  0.6037758862265861
 -0.0453511038405856  0.7767768922524866  0.3730082617072277
  0.5662996059295442  0.7027524051544994  0.1037758862265860
  0.4546488961594145  0.7767768922524866 -0.1269917382927724
  0.0662996059295441  0.2027524051544994  0.6037758862265861
 -0.0453511038405856  0.2767768922524866  0.3730082617072277
  0.0000000000000000  0.0000000000000000  0.0000000000000000
  0.4999999999999999  0.4999999999999999  0.5000000000000000
  0.0000000000000000  0.4999999999999999  0.0000000000000000
  0.4999999999999999  0.0000000000000000  0.5000000000000000
