 C  H  I  N Sn                          
   1.0000000000000000     
     8.8905085544226328    0.0002332500897764    0.0060674259810208
     0.0002103819610070    8.8902300481713397    0.0050099982152045
     0.0084731668530205    0.0068575749753444   12.4236378145245929
   C    H    I    N    Sn
     4    20    12     8     4
Direct
  0.0000078046311334  0.5052938382007687  0.0275392103840260
  0.5016807060810184  0.0059029440545191  0.0274334743107416
  0.0000091732251486  0.5052917507931376  0.5275390444172915
  0.5016794164333949  0.0059016033697633  0.5274326752498227
  0.8969851103529479  0.6055532124704255  0.8966602835314555
  0.1009832063049117  0.3992964495746864  0.8981042983200390
  0.1595508995711551  0.3438244518753434  0.0262449995331671
  0.8403159905279060  0.6665692692156272  0.0239393767203984
  0.0008014546359207  0.5073337403457405  0.1155178773273518
  0.4037332455206083  0.9058649144626372  0.8946748849666450
  0.6099124436017613  0.1097157141935450  0.8999191218825328
  0.6632079880421473  0.1653429773734919  0.0291400986669859
  0.3404686840214886  0.8463512361267261  0.0208132783455473
  0.4980843531520418  0.0046714802297693  0.1153903022106666
  0.8969874757131314  0.6055498889578548  0.3966603006989836
  0.1009820297020812  0.3992967294753481  0.3981036190874016
  0.1595480266078626  0.3438269124532606  0.5262470470778235
  0.8403186596012613  0.6665662839900335  0.5239424352133087
  0.0008000546592946  0.5073346162388266  0.6155171578644881
  0.4037353759864147  0.9058673016376753  0.3946738103912075
  0.6099106107597164  0.1097141577431747  0.3999185618316534
  0.6632045444850529  0.1653394802252071  0.5291426378830510
  0.3404710739182107  0.8463539233482498  0.5208153137421973
  0.4980839964077700  0.0046709421668379  0.6153892180274493
  0.2721669659229649  0.2345180124845778  0.2320251831333827
  0.7293953767981370  0.7772941783090577  0.2317126718584889
  0.7729410633981332  0.2773704416800427  0.2330336302101670
  0.2301396315018157  0.7345876838293756  0.2307157455830359
  0.0023257285854608  0.0040794894668761 -0.0189647809274840
  0.4995435569047330  0.5055415876995474 -0.0191016595036985
  0.2721694379432695  0.2345163091326672  0.7320203359464867
  0.7293929134120092  0.7772959640231100  0.7317079143314820
  0.7729415830341048  0.2773723791375858  0.7330290584307775
  0.2301377977004104  0.7345857781507894  0.7307109213976472
  0.0023257188426834  0.0040781440924961  0.4810335540209222
  0.4995432829351499  0.5055423292923661  0.4808980757293522
  0.0920397466714925  0.4107676312474030  0.9798575492986505
  0.9071493709078549  0.5976545520921043  0.9785391511239604
  0.5970147301881715  0.0989457826790432  0.9814874706970556
  0.4101208522440687  0.9141831426991455  0.9767136472248852
  0.0920373344366618  0.4107693039195152  0.4798568056124219
  0.9071480328157321  0.5976549814964909  0.4785395863711172
  0.5970149576904563  0.0989460196713663  0.4814870105725088
  0.4101221990176703  0.9141844242603461  0.4767127635380546
  0.0017358868843458  0.0054973423071743  0.2396600295931972
  0.5007717410204574  0.5062441417478255  0.2398800545838855
  0.0017359283218017  0.0054972130306886  0.7396575719330677
  0.5007720037077812  0.5062445730763862  0.7398787613012104

  0.00000000E+00  0.00000000E+00  0.00000000E+00
  0.00000000E+00  0.00000000E+00  0.00000000E+00
  0.00000000E+00  0.00000000E+00  0.00000000E+00
  0.00000000E+00  0.00000000E+00  0.00000000E+00
  0.00000000E+00  0.00000000E+00  0.00000000E+00
  0.00000000E+00  0.00000000E+00  0.00000000E+00
  0.00000000E+00  0.00000000E+00  0.00000000E+00
  0.00000000E+00  0.00000000E+00  0.00000000E+00
  0.00000000E+00  0.00000000E+00  0.00000000E+00
  0.00000000E+00  0.00000000E+00  0.00000000E+00
  0.00000000E+00  0.00000000E+00  0.00000000E+00
  0.00000000E+00  0.00000000E+00  0.00000000E+00
  0.00000000E+00  0.00000000E+00  0.00000000E+00
  0.00000000E+00  0.00000000E+00  0.00000000E+00
  0.00000000E+00  0.00000000E+00  0.00000000E+00
  0.00000000E+00  0.00000000E+00  0.00000000E+00
  0.00000000E+00  0.00000000E+00  0.00000000E+00
  0.00000000E+00  0.00000000E+00  0.00000000E+00
  0.00000000E+00  0.00000000E+00  0.00000000E+00
  0.00000000E+00  0.00000000E+00  0.00000000E+00
  0.00000000E+00  0.00000000E+00  0.00000000E+00
  0.00000000E+00  0.00000000E+00  0.00000000E+00
  0.00000000E+00  0.00000000E+00  0.00000000E+00
  0.00000000E+00  0.00000000E+00  0.00000000E+00
  0.00000000E+00  0.00000000E+00  0.00000000E+00
  0.00000000E+00  0.00000000E+00  0.00000000E+00
  0.00000000E+00  0.00000000E+00  0.00000000E+00
  0.00000000E+00  0.00000000E+00  0.00000000E+00
  0.00000000E+00  0.00000000E+00  0.00000000E+00
  0.00000000E+00  0.00000000E+00  0.00000000E+00
  0.00000000E+00  0.00000000E+00  0.00000000E+00
  0.00000000E+00  0.00000000E+00  0.00000000E+00
  0.00000000E+00  0.00000000E+00  0.00000000E+00
  0.00000000E+00  0.00000000E+00  0.00000000E+00
  0.00000000E+00  0.00000000E+00  0.00000000E+00
  0.00000000E+00  0.00000000E+00  0.00000000E+00
  0.00000000E+00  0.00000000E+00  0.00000000E+00
  0.00000000E+00  0.00000000E+00  0.00000000E+00
  0.00000000E+00  0.00000000E+00  0.00000000E+00
  0.00000000E+00  0.00000000E+00  0.00000000E+00
  0.00000000E+00  0.00000000E+00  0.00000000E+00
  0.00000000E+00  0.00000000E+00  0.00000000E+00
  0.00000000E+00  0.00000000E+00  0.00000000E+00
  0.00000000E+00  0.00000000E+00  0.00000000E+00
  0.00000000E+00  0.00000000E+00  0.00000000E+00
  0.00000000E+00  0.00000000E+00  0.00000000E+00
  0.00000000E+00  0.00000000E+00  0.00000000E+00
  0.00000000E+00  0.00000000E+00  0.00000000E+00
