 C  H  I  N Sn                          
   1.0000000000000000     
     8.8378999999999994    0.0000000000000000    0.0000000000000000
     0.0000000000000000    8.8378999999999994    0.0000000000000000
     0.0000000000000000    0.0000000000000000   12.4065999999999992
   C    H    I    N    Sn
     4    20    12     8     4
Direct
  0.5449549098203157  0.0449412179811290  0.5054649271864131
  0.0002669060139653  0.5023360700935252  0.4594631817285398
  0.5481691119965904  0.0077172256836587  0.0192156776121133
  0.0009107268950400  0.5014781056573105  0.0581842522477248
  0.3164602901088650  0.0193309976208999  0.5260389848903082
  0.5189960597781611  0.8158766239693436  0.5225804748356622
  0.7020324136586614  0.8817254440944285  0.5043942782299143
  0.3826432058738320  0.2027457105075297  0.5100536770593576
  0.6306479340298812  0.1307195461275451  0.4930332558937686
  0.9083437793098421  0.3960046061729540  0.5907652012842213
  0.1121038552907448  0.5967356727542719  0.5870585881563192
  0.1619191933197655  0.6605324289243586  0.4590857144849405
  0.8398890913127148  0.3433668039949533  0.4649487368438203
  0.9933633026644835  0.5063167680911653  0.3722602749107606
  0.3229657463419360  0.9819706891024552  0.9874583108682283
  0.5375418773677951  0.8503837689061168  0.8998644226512610
  0.7173951578353163  0.8976893246372584  0.9465143570297534
  0.3689942133211536  0.1110359442524832  0.0871721776892221
  0.6269344533583900  0.0699841621175829  0.0696827933633568
  0.8781154476714284  0.5772424437913498  0.9292344040825973
  0.1082808845254909  0.4109716151932066  0.9265931841580601
  0.1852740992070817  0.3715743512230377  0.0522830148614576
  0.8160259047943527  0.6308021343883157  0.0570043467246743
  0.0065010157683186  0.5068204642368779  0.1454214244675938
  0.0000000000000000  0.0000000000000000  0.0083500000000001
  0.5000000000000000  0.5000000000000000  0.0083500000000001
  0.6987000000000023  0.1987000000000023  0.7503999999999991
  0.3012999999999977  0.8012999999999977  0.7503999999999991
  0.8012999999999977  0.6987000000000023  0.7503999999999991
  0.1987000000000023  0.3012999999999977  0.7503999999999991
  0.0000000000000000  0.0000000000000000  0.5097000000000023
  0.5000000000000000  0.5000000000000000  0.5097000000000023
  0.7340299999999971  0.2340299999999971  0.2490000000000023
  0.2659700000000029  0.7659700000000029  0.2490000000000023
  0.7659700000000029  0.7340299999999971  0.2490000000000023
  0.2340299999999971  0.2659700000000029  0.2490000000000023
  0.5899938617994629  0.9042871704263428  0.5101832123219322
  0.4046635775156077  0.0903719538518749  0.5129882467848583
  0.0972310871905573  0.5926757804658793  0.5061038795352270
  0.9104779893772726  0.4081261752501621  0.5094977763895226
  0.6036262571255052  0.9074306438837916  0.9529638126268779
  0.4040922110291972  0.0377986503905247  0.0293637178334398
  0.1040846181532607  0.4231030020109834  0.0081162343862867
  0.8913598191488149  0.5740652757025578  0.0105818116513571
  0.0000000000000000  0.0000000000000000  0.2537999999999982
  0.5000000000000000  0.5000000000000000  0.2537999999999982
  0.0000000000000000  0.0000000000000000  0.7537000000000020
  0.5000000000000000  0.5000000000000000  0.7537000000000020

  0.00000000E+00  0.00000000E+00  0.00000000E+00
  0.00000000E+00  0.00000000E+00  0.00000000E+00
  0.00000000E+00  0.00000000E+00  0.00000000E+00
  0.00000000E+00  0.00000000E+00  0.00000000E+00
  0.00000000E+00  0.00000000E+00  0.00000000E+00
  0.00000000E+00  0.00000000E+00  0.00000000E+00
  0.00000000E+00  0.00000000E+00  0.00000000E+00
  0.00000000E+00  0.00000000E+00  0.00000000E+00
  0.00000000E+00  0.00000000E+00  0.00000000E+00
  0.00000000E+00  0.00000000E+00  0.00000000E+00
  0.00000000E+00  0.00000000E+00  0.00000000E+00
  0.00000000E+00  0.00000000E+00  0.00000000E+00
  0.00000000E+00  0.00000000E+00  0.00000000E+00
  0.00000000E+00  0.00000000E+00  0.00000000E+00
  0.00000000E+00  0.00000000E+00  0.00000000E+00
  0.00000000E+00  0.00000000E+00  0.00000000E+00
  0.00000000E+00  0.00000000E+00  0.00000000E+00
  0.00000000E+00  0.00000000E+00  0.00000000E+00
  0.00000000E+00  0.00000000E+00  0.00000000E+00
  0.00000000E+00  0.00000000E+00  0.00000000E+00
  0.00000000E+00  0.00000000E+00  0.00000000E+00
  0.00000000E+00  0.00000000E+00  0.00000000E+00
  0.00000000E+00  0.00000000E+00  0.00000000E+00
  0.00000000E+00  0.00000000E+00  0.00000000E+00
  0.00000000E+00  0.00000000E+00  0.00000000E+00
  0.00000000E+00  0.00000000E+00  0.00000000E+00
  0.00000000E+00  0.00000000E+00  0.00000000E+00
  0.00000000E+00  0.00000000E+00  0.00000000E+00
  0.00000000E+00  0.00000000E+00  0.00000000E+00
  0.00000000E+00  0.00000000E+00  0.00000000E+00
  0.00000000E+00  0.00000000E+00  0.00000000E+00
  0.00000000E+00  0.00000000E+00  0.00000000E+00
  0.00000000E+00  0.00000000E+00  0.00000000E+00
  0.00000000E+00  0.00000000E+00  0.00000000E+00
  0.00000000E+00  0.00000000E+00  0.00000000E+00
  0.00000000E+00  0.00000000E+00  0.00000000E+00
  0.00000000E+00  0.00000000E+00  0.00000000E+00
  0.00000000E+00  0.00000000E+00  0.00000000E+00
  0.00000000E+00  0.00000000E+00  0.00000000E+00
  0.00000000E+00  0.00000000E+00  0.00000000E+00
  0.00000000E+00  0.00000000E+00  0.00000000E+00
  0.00000000E+00  0.00000000E+00  0.00000000E+00
  0.00000000E+00  0.00000000E+00  0.00000000E+00
  0.00000000E+00  0.00000000E+00  0.00000000E+00
  0.00000000E+00  0.00000000E+00  0.00000000E+00
  0.00000000E+00  0.00000000E+00  0.00000000E+00
  0.00000000E+00  0.00000000E+00  0.00000000E+00
  0.00000000E+00  0.00000000E+00  0.00000000E+00
