 C  H  I  N Sn                          
   1.0000000000000000     
    12.6379239179741987    0.4619327116400555    0.4852302021405652
     0.2296105139216484    6.3345575348435164    0.2880382358946608
     0.5040953812264132    0.5956364189491993   12.5487488784516170
   C    H    I    N    Sn
     4    20    12     8     4
Direct
  0.4759800525318631  0.0489861688620467  0.9986107056944959
  0.4759817203060127  0.0489905590500268  0.4986165909602686
  0.9759791873259441  0.0489845901691087  0.9986091821063473
  0.9759824204990419  0.0489923546558152  0.4986186038236329
  0.0311109107333923  0.7747232258909665  0.4329899294950911
  0.1140059155421310  0.9512146218456147  0.0689521591002156
  0.0455507758692616  0.1817504225149511  0.1136704628465125
  0.4137857198747269  0.9005850200629119  0.3842953341989820
  0.4111844255465937  0.1736535342371111  0.9972986467460936
  0.0311115201606530  0.7747224804141002  0.9329862417870052
  0.1140062867387295  0.9512141293166835  0.5689564684361859
  0.0455525122944130  0.1817453729623863  0.6136743297235228
  0.4137873442722031  0.9005840556867325  0.8842940448302891
  0.4111843534961264  0.1736510663351969  0.4973001581774177
  0.5311109268978672  0.7747247091146118  0.4329897458140438
  0.6140069931015006  0.9512131593594794  0.0689532741014312
  0.5455518507347258  0.1817507169099625  0.1136720803852757
  0.9137850459190168  0.9005836055262348  0.3842955479723204
  0.9111841362609295  0.1736520280965092  0.9972980101973321
  0.5311112094076511  0.7747238708276225  0.9329869035115371
  0.6140056625352782  0.9512146876225147  0.5689560438576051
  0.5455516694030830  0.1817449820421625  0.6136732295323666
  0.9137872319533822  0.9005824201618382  0.8842935121194357
  0.9111837820969617  0.1736518615822102  0.4973009268288893
 -0.0147837844029069  0.4898204718231270  0.2422679462249073
  0.2542818156408447  0.0193501401874967  0.2575434398549947
  0.2335944029540216  0.5477738000009473  0.0048598456703589
 -0.0147851694422186  0.4898241269558859  0.7422622465135076
  0.2542844652851165  0.0193500285491246  0.7575396663775265
  0.2335943025913610  0.5477743601511913  0.5048603026453748
  0.4852159407074022  0.4898208316744931  0.2422678067946968
  0.7542826173890900  0.0193494271205913  0.2575447962743743
  0.7335938634753527  0.5477742042625487  0.0048599888050572
  0.4852147761967716  0.4898245468648674  0.7422628320496910
  0.7542829464866369  0.0193495400037141  0.7575389796512045
  0.7335938383281811  0.5477745670677979  0.5048602624118600
  0.0509269331264116  0.0615968772417419  0.0638718951724030
  0.4737261501978642  0.8970754726093529  0.4348384442914799
  0.0509254461383086  0.0615933283658624  0.5638726727776792
  0.4737271777836830  0.8970759671263798  0.9348367369129438
  0.5509266084381661  0.0615959512038900  0.0638718416561890
  0.9737258230492440  0.8970732967193118  0.4348383322600325
  0.5509255353394569  0.0615934753165156  0.5638727393536420
  0.9737273962563666  0.8970764559119352  0.9348369936019127
  0.2445219175608847  0.4939145464000856  0.2472131573170112
  0.2445224933038420  0.4939156640834106  0.7472100647711722
  0.7445221379784045  0.4939136470648797  0.2472133361839201
  0.7445218236469680  0.4939156230649792  0.7472102673128628

  0.00000000E+00  0.00000000E+00  0.00000000E+00
  0.00000000E+00  0.00000000E+00  0.00000000E+00
  0.00000000E+00  0.00000000E+00  0.00000000E+00
  0.00000000E+00  0.00000000E+00  0.00000000E+00
  0.00000000E+00  0.00000000E+00  0.00000000E+00
  0.00000000E+00  0.00000000E+00  0.00000000E+00
  0.00000000E+00  0.00000000E+00  0.00000000E+00
  0.00000000E+00  0.00000000E+00  0.00000000E+00
  0.00000000E+00  0.00000000E+00  0.00000000E+00
  0.00000000E+00  0.00000000E+00  0.00000000E+00
  0.00000000E+00  0.00000000E+00  0.00000000E+00
  0.00000000E+00  0.00000000E+00  0.00000000E+00
  0.00000000E+00  0.00000000E+00  0.00000000E+00
  0.00000000E+00  0.00000000E+00  0.00000000E+00
  0.00000000E+00  0.00000000E+00  0.00000000E+00
  0.00000000E+00  0.00000000E+00  0.00000000E+00
  0.00000000E+00  0.00000000E+00  0.00000000E+00
  0.00000000E+00  0.00000000E+00  0.00000000E+00
  0.00000000E+00  0.00000000E+00  0.00000000E+00
  0.00000000E+00  0.00000000E+00  0.00000000E+00
  0.00000000E+00  0.00000000E+00  0.00000000E+00
  0.00000000E+00  0.00000000E+00  0.00000000E+00
  0.00000000E+00  0.00000000E+00  0.00000000E+00
  0.00000000E+00  0.00000000E+00  0.00000000E+00
  0.00000000E+00  0.00000000E+00  0.00000000E+00
  0.00000000E+00  0.00000000E+00  0.00000000E+00
  0.00000000E+00  0.00000000E+00  0.00000000E+00
  0.00000000E+00  0.00000000E+00  0.00000000E+00
  0.00000000E+00  0.00000000E+00  0.00000000E+00
  0.00000000E+00  0.00000000E+00  0.00000000E+00
  0.00000000E+00  0.00000000E+00  0.00000000E+00
  0.00000000E+00  0.00000000E+00  0.00000000E+00
  0.00000000E+00  0.00000000E+00  0.00000000E+00
  0.00000000E+00  0.00000000E+00  0.00000000E+00
  0.00000000E+00  0.00000000E+00  0.00000000E+00
  0.00000000E+00  0.00000000E+00  0.00000000E+00
  0.00000000E+00  0.00000000E+00  0.00000000E+00
  0.00000000E+00  0.00000000E+00  0.00000000E+00
  0.00000000E+00  0.00000000E+00  0.00000000E+00
  0.00000000E+00  0.00000000E+00  0.00000000E+00
  0.00000000E+00  0.00000000E+00  0.00000000E+00
  0.00000000E+00  0.00000000E+00  0.00000000E+00
  0.00000000E+00  0.00000000E+00  0.00000000E+00
  0.00000000E+00  0.00000000E+00  0.00000000E+00
  0.00000000E+00  0.00000000E+00  0.00000000E+00
  0.00000000E+00  0.00000000E+00  0.00000000E+00
  0.00000000E+00  0.00000000E+00  0.00000000E+00
  0.00000000E+00  0.00000000E+00  0.00000000E+00
