 C  H  I  N Sn 
 1.0000000000000000
    12.6148000000000007    0.0000000000000000    0.0000000000000000
     0.0000000000000000    6.3074000000000003    0.0000000000000000
     0.0000000000000000    0.0000000000000000   12.6148000000000007
 C   H   I   N   Sn 
   4  20  12   8   4
Direct
  0.4733463742914584  0.0543216783344507 -0.0007851089444115 
  0.4733463742914584  0.0543216783344507  0.4992148910555885 
  0.9733463742914584  0.0543216783344507 -0.0007851089444115 
  0.9733463742914584  0.0543216783344507  0.4992148910555885 
  0.0344984578640253  0.8108016040715498  0.4123652639716164 
  0.0942711982656505  0.9349178889999969  0.0883417227907495 
  0.0267624574341746  0.1495410274186940  0.1415997623058976 
  0.4273341886344172 -0.0566511383614963  0.3571794969496733 
  0.4122629488802767  0.1760569679604542 -0.0015868791534720 
  0.0344984578640253  0.8108016040715498  0.9123652639716163 
  0.0942711982656505  0.9349178889999969  0.5883417227907495 
  0.0267624574341746  0.1495410274186940  0.6415997623058975 
  0.4273341886344172 -0.0566511383614963  0.8571794969496732 
  0.4122629488802767  0.1760569679604542  0.4984131208465279 
  0.5344984578640252  0.8108016040715498  0.4123652639716164 
  0.5942711982656506  0.9349178889999969  0.0883417227907495 
  0.5267624574341745  0.1495410274186940  0.1415997623058976 
  0.9273341886344172 -0.0566511383614963  0.3571794969496733 
  0.9122629488802767  0.1760569679604542 -0.0015868791534720 
  0.5344984578640252  0.8108016040715498  0.9123652639716163 
  0.5942711982656506  0.9349178889999969  0.5883417227907495 
  0.5267624574341745  0.1495410274186940  0.6415997623058975 
  0.9273341886344172 -0.0566511383614963  0.8571794969496732 
  0.9122629488802767  0.1760569679604542  0.4984131208465279 
  0.0000000000000000  0.5000000000000000  0.2500000000000000 
  0.2500000000000000  0.0000000000000000  0.2500000000000000 
  0.2500000000000000  0.5000000000000000  0.0000000000000000 
  0.0000000000000000  0.5000000000000000  0.7499999999999999 
  0.2500000000000000  0.0000000000000000  0.7499999999999999 
  0.2500000000000000  0.5000000000000000  0.5000000000000000 
  0.5000000000000000  0.5000000000000000  0.2500000000000000 
  0.7499999999999999  0.0000000000000000  0.2500000000000000 
  0.7499999999999999  0.5000000000000000  0.0000000000000000 
  0.5000000000000000  0.5000000000000000  0.7499999999999999 
  0.7499999999999999  0.0000000000000000  0.7499999999999999 
  0.7499999999999999  0.5000000000000000  0.5000000000000000 
  0.0343681096869682  0.0412222915048754  0.0825166586451365 
  0.4810440428257121 -0.0697688216742935  0.4167807652175853 
  0.0343681096869682  0.0412222915048754  0.5825166586451365 
  0.4810440428257121 -0.0697688216742935  0.9167807652175853 
  0.5343681096869682  0.0412222915048754  0.0825166586451365 
  0.9810440428257121 -0.0697688216742935  0.4167807652175853 
  0.5343681096869682  0.0412222915048754  0.5825166586451365 
  0.9810440428257121 -0.0697688216742935  0.9167807652175853 
  0.2500000000000000  0.5000000000000000  0.2500000000000000 
  0.2500000000000000  0.5000000000000000  0.7499999999999999 
  0.7499999999999999  0.5000000000000000  0.2500000000000000 
  0.7499999999999999  0.5000000000000000  0.7499999999999999 
