C  H  I  N  Sn
 1.0000000000000000
     6.2449000000000003    0.0000000000000000    0.0000000000000000
     0.0000000000000000    6.2449000000000003    0.0000000000000000
     0.0000000000000000    0.0000000000000000    6.2449000000000003
 C   H   I   N   Sn 
   1   5   3   2   1
Cartesian
 -0.2087851547764341  0.2875991123932096  0.2317171640963052
  0.0942148452235649 -0.3164008876067914 -1.7152828359036945
  1.0852148452235646 -1.3034008876067915  0.4047171640963052
  0.5942148452235649 -0.5234008876067904  1.8977171640963055
 -0.9717851547764340  1.0545991123932090 -1.4782828359036944
 -0.7517851547764351  1.0355991123932089  0.8337171640963055
  0.0000000000000000  3.1224499999999997  3.1224499999999997
  3.1224499999999997  0.0000000000000000  3.1224499999999997
  3.1224499999999997  3.1224499999999997  0.0000000000000000
  0.5552148452235652 -0.5604008876067912  0.8697171640963051
 -0.3797851547764353  0.3175991123932089 -1.0642828359036947
  3.1224499999999997  3.1224499999999997  3.1224499999999997
