Br C  H  I  N  Sn
 1.0000000000000000
    12.0637000000000008    0.0000000000000000    0.0000000000000000
     0.0000000000000000   12.0637000000000008    0.0000000000000000
     0.0000000000000000    0.0000000000000000   12.0637000000000008
 Br  C   H   I   N   Sn 
  24   8  40  24  16   8
Cartesian
  5.6643896980000008  8.9235188900000004  9.1840948099999995
  0.3674603019999992  3.1401811099999999  3.1522448099999987
  6.3993103020000000  2.8916688900000005  8.9114551900000016
 11.6962396980000012  9.1720311100000007  2.8796051900000004
  9.1840948099999995  5.6643896980000008  8.9235188900000004
  3.1522448099999987  0.3674603019999992  3.1401811099999999
  8.9114551900000016  6.3993103020000000  2.8916688900000005
  2.8796051900000004 11.6962396980000012  9.1720311100000007
  8.9235188900000004  9.1840948099999995  5.6643896980000008
  3.1401811099999999  3.1522448099999987  0.3674603019999992
  2.8916688900000005  8.9114551900000016  6.3993103020000000
  9.1720311100000007  2.8796051900000004 11.6962396980000012
  6.3993103020000000  3.1401811099999999  2.8796051900000004
 11.6962396980000012  8.9235188900000004  8.9114551900000016
  5.6643896980000008  9.1720311100000007  3.1522448099999987
  0.3674603019999992  2.8916688900000005  9.1840948099999995
  2.8796051900000004  6.3993103020000000  3.1401811099999999
  8.9114551900000016 11.6962396980000012  8.9235188900000004
  3.1522448099999987  5.6643896980000008  9.1720311100000007
  9.1840948099999995  0.3674603019999992  2.8916688900000005
  3.1401811099999999  2.8796051900000004  6.3993103020000000
  8.9235188900000004  8.9114551900000016 11.6962396980000012
  9.1720311100000007  3.1522448099999987  5.6643896980000008
  2.8916688900000005  9.1840948099999995  0.3674603019999992
  5.8230648452235663  6.3194491123932099  6.2635671640963055
 -0.2087851547764341  6.3194491123932099  0.2317171640963052
  5.8230648452235663  0.2875991123932096  0.2317171640963052
 -0.2087851547764341  0.2875991123932096  6.2635671640963055
 -0.2087851547764341  0.2875991123932096  0.2317171640963052
  5.8230648452235663  0.2875991123932096  6.2635671640963055
 -0.2087851547764341  6.3194491123932099  6.2635671640963055
  5.8230648452235663  6.3194491123932099  0.2317171640963052
  6.1260648452235653  5.7154491123932090  4.3165671640963055
  7.1170648452235650  4.7284491123932089  6.4365671640963056
  6.6260648452235653  5.5084491123932100  7.9295671640963059
  5.0600648452235664  7.0864491123932094  4.5535671640963056
  5.2800648452235652  7.0674491123932093  6.8655671640963059
  0.0942148452235649  5.7154491123932090 -1.7152828359036945
  1.0852148452235646  4.7284491123932089  0.4047171640963052
  0.5942148452235649  5.5084491123932100  1.8977171640963055
 -0.9717851547764340  7.0864491123932094 -1.4782828359036944
 -0.7517851547764351  7.0674491123932093  0.8337171640963055
  6.1260648452235653 -0.3164008876067914 -1.7152828359036945
  7.1170648452235650 -1.3034008876067915  0.4047171640963052
  6.6260648452235653 -0.5234008876067904  1.8977171640963055
  5.0600648452235664  1.0545991123932090 -1.4782828359036944
  5.2800648452235652  1.0355991123932089  0.8337171640963055
  0.0942148452235649 -0.3164008876067914  4.3165671640963055
  1.0852148452235646 -1.3034008876067915  6.4365671640963056
  0.5942148452235649 -0.5234008876067904  7.9295671640963059
 -0.9717851547764340  1.0545991123932090  4.5535671640963056
 -0.7517851547764351  1.0355991123932089  6.8655671640963059
  0.0942148452235649 -0.3164008876067914 -1.7152828359036945
  1.0852148452235646 -1.3034008876067915  0.4047171640963052
  0.5942148452235649 -0.5234008876067904  1.8977171640963055
 -0.9717851547764340  1.0545991123932090 -1.4782828359036944
 -0.7517851547764351  1.0355991123932089  0.8337171640963055
  6.1260648452235653 -0.3164008876067914  4.3165671640963055
  7.1170648452235650 -1.3034008876067915  6.4365671640963056
  6.6260648452235653 -0.5234008876067904  7.9295671640963059
  5.0600648452235664  1.0545991123932090  4.5535671640963056
  5.2800648452235652  1.0355991123932089  6.8655671640963059
  0.0942148452235649  5.7154491123932090  4.3165671640963055
  1.0852148452235646  4.7284491123932089  6.4365671640963056
  0.5942148452235649  5.5084491123932100  7.9295671640963059
 -0.9717851547764340  7.0864491123932094  4.5535671640963056
 -0.7517851547764351  7.0674491123932093  6.8655671640963059
  6.1260648452235653  5.7154491123932090 -1.7152828359036945
  7.1170648452235650  4.7284491123932089  0.4047171640963052
  6.6260648452235653  5.5084491123932100  1.8977171640963055
  5.0600648452235664  7.0864491123932094 -1.4782828359036944
  5.2800648452235652  7.0674491123932093  0.8337171640963055
  5.7785123000000000  9.2649216000000010  8.6134818000000006
  0.2533377000000002  2.7987783999999998  2.5816317999999998
  6.2851877000000007  3.2330716000000006  9.4820682000000005
 11.8103623000000013  8.8306284000000002  3.4502181999999992
  8.6134818000000006  5.7785123000000000  9.2649216000000010
  2.5816317999999998  0.2533377000000002  2.7987783999999998
  9.4820682000000005  6.2851877000000007  3.2330716000000006
  3.4502181999999992 11.8103623000000013  8.8306284000000002
  9.2649216000000010  8.6134818000000006  5.7785123000000000
  2.7987783999999998  2.5816317999999998  0.2533377000000002
  3.2330716000000006  9.4820682000000005  6.2851877000000007
  8.8306284000000002  3.4502181999999992 11.8103623000000013
  6.2851877000000007  2.7987783999999998  3.4502181999999992
 11.8103623000000013  9.2649216000000010  9.4820682000000005
  5.7785123000000000  8.8306284000000002  2.5816317999999998
  0.2533377000000002  3.2330716000000006  8.6134818000000006
  3.4502181999999992  6.2851877000000007  2.7987783999999998
  9.4820682000000005 11.8103623000000013  9.2649216000000010
  2.5816317999999998  5.7785123000000000  8.8306284000000002
  8.6134818000000006  0.2533377000000002  3.2330716000000006
  2.7987783999999998  3.4502181999999992  6.2851877000000007
  9.2649216000000010  9.4820682000000005 11.8103623000000013
  8.8306284000000002  2.5816317999999998  5.7785123000000000
  3.2330716000000006  8.6134818000000006  0.2533377000000002
  6.5870648452235656  5.4714491123932092  6.9015671640963054
  5.6520648452235651  6.3494491123932093  4.9675671640963053
  0.5552148452235652  5.4714491123932092  0.8697171640963051
 -0.3797851547764353  6.3494491123932093 -1.0642828359036947
  6.5870648452235656 -0.5604008876067912  0.8697171640963051
  5.6520648452235651  0.3175991123932089 -1.0642828359036947
  0.5552148452235652 -0.5604008876067912  6.9015671640963054
 -0.3797851547764353  0.3175991123932089  4.9675671640963053
  0.5552148452235652 -0.5604008876067912  0.8697171640963051
 -0.3797851547764353  0.3175991123932089 -1.0642828359036947
  6.5870648452235656 -0.5604008876067912  6.9015671640963054
  5.6520648452235651  0.3175991123932089  4.9675671640963053
  0.5552148452235652  5.4714491123932092  6.9015671640963054
 -0.3797851547764353  6.3494491123932093  4.9675671640963053
  6.5870648452235656  5.4714491123932092  0.8697171640963051
  5.6520648452235651  6.3494491123932093 -1.0642828359036947
  2.9318410109999999  8.9636910109999999  9.1318589890000013
  3.1000089890000004  3.1000089890000004  3.1000089889999991
  9.1318589890000013  2.9318410110000013  8.9636910109999999
  8.9636910109999999  9.1318589890000013  2.9318410109999999
  9.1318589890000013  3.1000089890000004  2.9318410109999999
  8.9636910109999999  8.9636910109999999  8.9636910109999999
  2.9318410109999999  9.1318589890000013  3.1000089889999991
  3.1000089890000004  2.9318410110000013  9.1318589890000013
