I  Sn
 1.0000000000000000
    12.2492999999999999    0.0000000000000000    0.0000000000000000
     0.0000000000000000   12.2492999999999999    0.0000000000000000
     0.0000000000000000    0.0000000000000000   12.2492999999999999
 I   Sn 
  32   8
Cartesian
  3.1238164860000004  0.0945645960000000  0.0003674790000000
  0.0003674790000000  3.1238164860000004  0.0945645960000000
  0.0945645960000000  0.0003674790000000  3.1238164860000004
  6.0300854040000003 12.2489325210000004  9.2484664859999999
  6.1250174789999994  3.0008335139999995 12.1547354040000002
 12.1547354040000002  6.1250174789999994  3.0008335139999995
  6.1242825210000005  9.1254835139999990  6.2192145959999996
 12.2489325210000004  9.2484664859999999  6.0300854040000003
  6.2192145959999996  6.1242825210000005  9.1254835139999990
  3.0008335139999995 12.1547354040000002  6.1250174789999994
  9.2484664859999999  6.0300854040000003 12.2489325210000004
  9.1254835139999990  6.2192145959999996  6.1242825210000005
  9.1254835139999990 12.1547354040000002 12.2489325210000004
 12.2489325210000004  9.1254835139999990 12.1547354040000002
 12.1547354040000002 12.2489325210000004  9.1254835139999990
  6.2192145959999996  0.0003674790000000  3.0008335139999995
  6.1242825210000005  9.2484664859999999  0.0945645960000000
  0.0945645960000000  6.1242825210000005  9.2484664859999999
  6.1250174789999994  3.1238164860000004  6.0300854040000003
  0.0003674790000000  3.0008335139999995  6.2192145959999996
  6.0300854040000003  6.1250174789999994  3.1238164860000004
  9.2484664859999999  0.0945645960000000  6.1242825210000005
  3.0008335139999995  6.2192145959999996  0.0003674790000000
  3.1238164860000004  6.0300854040000003  6.1250174789999994
  3.1078923960000000  3.1078923960000000  3.1078923960000000
  3.0167576039999999  9.1414076040000012  9.2325423959999995
  9.2325423959999995  3.0167576039999999  9.1414076040000012
  9.1414076040000012  9.2325423959999995  3.0167576039999999
  9.1414076040000012  9.1414076040000012  9.1414076040000012
  9.2325423959999995  3.1078923960000000  3.0167576039999999
  3.0167576039999999  9.2325423959999995  3.1078923960000000
  3.1078923960000000  3.0167576039999999  9.2325423959999995
  1.5757499520000000  1.5757499520000000  1.5757499520000000
  4.5489000480000001 10.6735500480000010  7.7003999519999997
  7.7003999519999997  4.5489000480000001 10.6735500480000010
 10.6735500480000010  7.7003999519999997  4.5489000480000001
 10.6735500480000010 10.6735500480000010 10.6735500480000010
  7.7003999519999997  1.5757499520000000  4.5489000480000001
  4.5489000480000001  7.7003999519999997  1.5757499520000000
  1.5757499520000000  4.5489000480000001  7.7003999519999997
