Br H  Sn
 1.0000000000000000
    10.6415000000000006    0.0000000000000000    0.0000000000000000
     0.0000000000000000   10.6415000000000006    0.0000000000000000
     0.0000000000000000    0.0000000000000000   10.6415000000000006
 Br  H   Sn 
  24  48   4
Cartesian
  5.3207500000000003  5.3207500000000003  2.7228406050000000
  5.3207500000000003  5.3207500000000003  7.9186593949999997
  2.7228406050000000  5.3207500000000003  5.3207500000000003
  7.9186593949999997  5.3207500000000003  5.3207500000000003
  5.3207500000000003  2.7228406050000000  5.3207500000000003
  5.3207500000000003  7.9186593949999997  5.3207500000000003
  5.3207500000000003  0.0000000000000000  8.0435906050000003
  5.3207500000000003  0.0000000000000000  2.5979093950000003
  2.7228406050000000  0.0000000000000000  0.0000000000000000
  7.9186593949999997  0.0000000000000000  0.0000000000000000
  5.3207500000000003  8.0435906050000003  0.0000000000000000
  5.3207500000000003  2.5979093950000003  0.0000000000000000
  0.0000000000000000  5.3207500000000003  8.0435906050000003
  0.0000000000000000  5.3207500000000003  2.5979093950000003
  8.0435906050000003  5.3207500000000003  0.0000000000000000
  2.5979093950000003  5.3207500000000003  0.0000000000000000
  0.0000000000000000  2.7228406050000000  0.0000000000000000
  0.0000000000000000  7.9186593949999997  0.0000000000000000
  0.0000000000000000  0.0000000000000000  2.7228406050000000
  0.0000000000000000  0.0000000000000000  7.9186593949999997
  8.0435906050000003  0.0000000000000000  5.3207500000000003
  2.5979093950000003  0.0000000000000000  5.3207500000000003
  0.0000000000000000  8.0435906050000003  5.3207500000000003
  0.0000000000000000  2.5979093950000003  5.3207500000000003
  7.9811250000000005  3.6926005000000002  7.9811250000000005
  2.6603750000000002  6.9488995000000005  7.9811250000000005
  2.6603750000000002  3.6926005000000002  2.6603750000000002
  7.9811250000000005  6.9488995000000005  2.6603750000000002
  7.9811250000000005  7.9811250000000005  3.6926005000000002
  7.9811250000000005  2.6603750000000002  6.9488995000000005
  2.6603750000000002  2.6603750000000002  3.6926005000000002
  2.6603750000000002  7.9811250000000005  6.9488995000000005
  3.6926005000000002  7.9811250000000005  7.9811250000000005
  6.9488995000000005  7.9811250000000005  2.6603750000000002
  3.6926005000000002  2.6603750000000002  2.6603750000000002
  6.9488995000000005  2.6603750000000002  7.9811250000000005
  3.6926005000000002  7.9811250000000005  2.6603750000000002
  6.9488995000000005  2.6603750000000002  2.6603750000000002
  3.6926005000000002  2.6603750000000002  7.9811250000000005
  6.9488995000000005  7.9811250000000005  7.9811250000000005
  7.9811250000000005  7.9811250000000005  6.9488995000000005
  2.6603750000000002  7.9811250000000005  3.6926005000000002
  2.6603750000000002  2.6603750000000002  6.9488995000000005
  7.9811250000000005  2.6603750000000002  3.6926005000000002
  7.9811250000000005  3.6926005000000002  2.6603750000000002
  7.9811250000000005  6.9488995000000005  7.9811250000000005
  2.6603750000000002  3.6926005000000002  7.9811250000000005
  2.6603750000000002  6.9488995000000005  2.6603750000000002
  7.9811250000000005  9.0133504999999996  2.6603750000000002
  2.6603750000000002  1.6281495000000004  2.6603750000000002
  2.6603750000000002  9.0133504999999996  7.9811250000000005
  7.9811250000000005  1.6281495000000004  7.9811250000000005
  7.9811250000000005  2.6603750000000002  9.0133504999999996
  7.9811250000000005  7.9811250000000005  1.6281495000000004
  2.6603750000000002  7.9811250000000005  9.0133504999999996
  2.6603750000000002  2.6603750000000002  1.6281495000000004
  7.9811250000000005  2.6603750000000002  1.6281495000000004
  2.6603750000000002  2.6603750000000002  9.0133504999999996
  2.6603750000000002  7.9811250000000005  1.6281495000000004
  7.9811250000000005  7.9811250000000005  9.0133504999999996
  7.9811250000000005  9.0133504999999996  7.9811250000000005
  7.9811250000000005  1.6281495000000004  2.6603750000000002
  2.6603750000000002  9.0133504999999996  2.6603750000000002
  2.6603750000000002  1.6281495000000004  7.9811250000000005
  9.0133504999999996  7.9811250000000005  2.6603750000000002
  1.6281495000000004  7.9811250000000005  7.9811250000000005
  9.0133504999999996  2.6603750000000002  7.9811250000000005
  1.6281495000000004  2.6603750000000002  2.6603750000000002
  9.0133504999999996  7.9811250000000005  7.9811250000000005
  1.6281495000000004  2.6603750000000002  7.9811250000000005
  9.0133504999999996  2.6603750000000002  2.6603750000000002
  1.6281495000000004  7.9811250000000005  2.6603750000000002
  5.3207500000000003  5.3207500000000003  5.3207500000000003
  5.3207500000000003  0.0000000000000000  0.0000000000000000
  0.0000000000000000  5.3207500000000003  0.0000000000000000
  0.0000000000000000  0.0000000000000000  5.3207500000000003
