Br C  H  N  Sn
 1.0000000000000000
    12.0303000000000004    0.0000000000000000    0.0000000000000000
     0.0000000000000000   12.0303000000000004    0.0000000000000000
     0.0000000000000000    0.0000000000000000   12.0303000000000004
 Br  C   H   N   Sn 
  24   8  40  16   8
Cartesian
  6.4236989879999999  2.8681438230000000  8.8658498879999996
 11.6217510120000007  9.1621561770000000  2.8506998879999981
  5.6066010120000005  8.8832938230000007  9.1796001120000010
  0.4085489879999999  3.1470061770000002  3.1644501120000008
  8.8658498879999996  6.4236989879999999  2.8681438230000000
  2.8506998879999981 11.6217510120000007  9.1621561770000000
  9.1796001120000010  5.6066010120000005  8.8832938230000007
  3.1644501120000008  0.4085489879999999  3.1470061770000002
  2.8681438230000000  8.8658498879999996  6.4236989879999999
  9.1621561770000000  2.8506998879999981 11.6217510120000007
  8.8832938230000007  9.1796001120000010  5.6066010120000005
  3.1470061770000002  3.1644501120000008  0.4085489879999999
  5.6066010120000005  9.1621561770000000  3.1644501120000008
  0.4085489879999999  2.8681438230000000  9.1796001120000010
  6.4236989879999999  3.1470061770000002  2.8506998879999981
 11.6217510120000007  8.8832938230000007  8.8658498879999996
  3.1644501120000008  5.6066010120000005  9.1621561770000000
  9.1796001120000010  0.4085489879999999  2.8681438230000000
  2.8506998879999981  6.4236989879999999  3.1470061770000002
  8.8658498879999996 11.6217510120000007  8.8832938230000007
  9.1621561770000000  3.1644501120000008  5.6066010120000005
  2.8681438230000000  9.1796001120000010  0.4085489879999999
  3.1470061770000002  2.8506998879999981  6.4236989879999999
  8.8832938230000007  8.8658498879999996 11.6217510120000007
  5.8063648452235652  6.3027491123932089  6.2468671640963045
 -0.2087851547764341  6.3027491123932098  0.2317171640963052
  5.8063648452235661  0.2875991123932096  0.2317171640963060
 -0.2087851547764341  0.2875991123932096  6.2468671640963054
  5.8063648452235652  0.2875991123932096  6.2468671640963045
 -0.2087851547764341  0.2875991123932096  0.2317171640963052
  5.8063648452235661  6.3027491123932098  0.2317171640963060
 -0.2087851547764341  6.3027491123932098  6.2468671640963054
  6.1093648452235643  5.6987491123932079  4.2998671640963053
  7.1003648452235639  4.7117491123932078  6.4198671640963045
  6.6093648452235643  5.4917491123932090  7.9128671640963049
  5.0433648452235653  7.0697491123932084  4.5368671640963054
  5.2633648452235642  7.0507491123932082  6.8488671640963048
  0.0942148452235649  5.6987491123932088 -1.7152828359036945
  1.0852148452235646  4.7117491123932087  0.4047171640963052
  0.5942148452235649  5.4917491123932098  1.8977171640963055
 -0.9717851547764340  7.0697491123932092 -1.4782828359036944
 -0.7517851547764351  7.0507491123932091  0.8337171640963055
  6.1093648452235652 -0.3164008876067914 -1.7152828359036936
  7.1003648452235648 -1.3034008876067915  0.4047171640963061
  6.6093648452235652 -0.5234008876067904  1.8977171640963064
  5.0433648452235662  1.0545991123932090 -1.4782828359036935
  5.2633648452235651  1.0355991123932089  0.8337171640963064
  0.0942148452235649 -0.3164008876067914  4.2998671640963053
  1.0852148452235646 -1.3034008876067915  6.4198671640963054
  0.5942148452235649 -0.5234008876067904  7.9128671640963057
 -0.9717851547764340  1.0545991123932090  4.5368671640963054
 -0.7517851547764351  1.0355991123932089  6.8488671640963057
  6.1093648452235643 -0.3164008876067914  4.2998671640963053
  7.1003648452235639 -1.3034008876067915  6.4198671640963045
  6.6093648452235643 -0.5234008876067904  7.9128671640963049
  5.0433648452235653  1.0545991123932090  4.5368671640963054
  5.2633648452235642  1.0355991123932089  6.8488671640963048
  0.0942148452235649 -0.3164008876067914 -1.7152828359036945
  1.0852148452235646 -1.3034008876067915  0.4047171640963052
  0.5942148452235649 -0.5234008876067904  1.8977171640963055
 -0.9717851547764340  1.0545991123932090 -1.4782828359036944
 -0.7517851547764351  1.0355991123932089  0.8337171640963055
  6.1093648452235652  5.6987491123932088 -1.7152828359036936
  7.1003648452235648  4.7117491123932087  0.4047171640963061
  6.6093648452235652  5.4917491123932098  1.8977171640963064
  5.0433648452235662  7.0697491123932092 -1.4782828359036935
  5.2633648452235651  7.0507491123932091  0.8337171640963064
  0.0942148452235649  5.6987491123932088  4.2998671640963053
  1.0852148452235646  4.7117491123932087  6.4198671640963054
  0.5942148452235649  5.4917491123932098  7.9128671640963057
 -0.9717851547764340  7.0697491123932092  4.5368671640963054
 -0.7517851547764351  7.0507491123932091  6.8488671640963057
  6.5703648452235646  5.4547491123932081  6.8848671640963044
  5.6353648452235641  6.3327491123932083  4.9508671640963051
  0.5552148452235652  5.4547491123932090  0.8697171640963051
 -0.3797851547764353  6.3327491123932091 -1.0642828359036947
  6.5703648452235655 -0.5604008876067912  0.8697171640963060
  5.6353648452235650  0.3175991123932089 -1.0642828359036938
  0.5552148452235652 -0.5604008876067912  6.8848671640963053
 -0.3797851547764353  0.3175991123932089  4.9508671640963051
  6.5703648452235646 -0.5604008876067912  6.8848671640963044
  5.6353648452235641  0.3175991123932089  4.9508671640963051
  0.5552148452235652 -0.5604008876067912  0.8697171640963051
 -0.3797851547764353  0.3175991123932089 -1.0642828359036947
  6.5703648452235655  5.4547491123932090  0.8697171640963060
  5.6353648452235650  6.3327491123932091 -1.0642828359036938
  0.5552148452235652  5.4547491123932090  6.8848671640963053
 -0.3797851547764353  6.3327491123932091  4.9508671640963051
  9.1396595160000000  2.8906404839999995  8.9057904839999988
  8.9057904840000006  9.1396595160000018  2.8906404839999982
  2.8906404840000008  8.9057904839999988  9.1396595160000018
  3.1245095159999994  3.1245095160000007  3.1245095160000007
  2.8906404840000008  9.1396595160000018  3.1245095160000007
  3.1245095159999994  2.8906404839999995  9.1396595160000018
  9.1396595160000000  3.1245095160000007  2.8906404839999982
  8.9057904840000006  8.9057904839999988  8.9057904839999988
