 C  H  I  N Sn 
 1.0000000000000000
     8.8820999999999994    0.0000000000000000    0.0000000000000000
     0.0000000000000000    8.8820999999999994    0.0000000000000000
     0.0000000000000000    0.0000000000000000    6.2698000000000000
 C   H   I   N   Sn 
   2  10   6   4   2
Selective dynamics
Direct
  0.4764937171641352 -0.0345301440522174 -0.0328191483102167 T T T  
 -0.0235062828358645  0.4604854630481117  0.0183416852661303 T T T
  0.5106072713911760  0.0523179919490777  0.2681392568326973 T T T
  0.6221799850512338  0.1422149749138630 -0.0824230383037407 T T T
  0.5669002651651711  0.0400819896475614 -0.3087998294147495 T T T
  0.3905906086650190 -0.1037755942653287  0.2495409570239786 T T T
  0.4153595259255768 -0.1243311360818857 -0.1180717421211808 T T T
  0.0106072713911761  0.6813626849819807  0.1066786622247607 T T T
  0.1221799850512339  0.5417084504558587 -0.2095040875908621 T T T
  0.0669002651651710  0.3529069727361482 -0.2348610425623130 T T T
 -0.1094093913349809  0.5749165695803674  0.2694809680964976 T T T
 -0.0846404740744233  0.3577766802045965  0.0661028396481088 T T T
  0.2777000000000001  0.2223000000000001  0.5000000000000000 F F F  
  0.7223000000000001  0.7776999999999999  0.5000000000000000 F F F
  0.7776999999999999  0.2777000000000001  0.5000000000000000 F F F
  0.2223000000000001  0.7223000000000001  0.5000000000000000 F F F
  0.0000000000000000  0.0000000000000000  0.0000000000000000 F F F
  0.5000000000000000  0.5000000000000000  0.0000000000000000 F F F
  0.5625094116507995  0.0543190853089466 -0.1459775085820832 T T T  
  0.4572415132934286 -0.0251778510518896  0.1735164606421153 T T T
  0.0625094116507992  0.4522421511447964 -0.1505109648913402 T T T
 -0.0427584867065711  0.5810175314786425  0.1349342889245944 T T T
  0.0000000000000000  0.0000000000000000  0.5000000000000000 F F F 
  0.5000000000000000  0.5000000000000000  0.5000000000000000 F F F 
